units           real
boundary        p p p
atom_style      hybrid molecular ellipsoid

# Neighbour list.
neighbor        5.0 bin
neigh_modify    check yes


# ----------------- Atom Definition Section -----------------

read_data "04_cg_sample_01.data"
  orthogonal box = (-74.9454 -72.0258 -36.5586) to (74.9454 72.0258 186.559)
  8 by 8 by 8 MPI processor grid
  reading atoms ...
  94995 atoms
  94995 ellipsoids
  reading velocities ...
  94995 velocities
  scanning bonds ...
  1 = max bonds/atom
  reading bonds ...
  16920 bonds
  2 = max # of 1-2 neighbors
  2 = max # of 1-3 neighbors
  4 = max # of 1-4 neighbors
  6 = max # of special neighbors
  special bonds CPU = 18.2696 secs
  read_data CPU = 18.9735 secs

# ----------------- Settings Section -----------------

include "04_cg_sample_01.in.settings"
    mass 1 72.0634
    mass 2  58.0366
     mass 3 40.4364

pair_style hybrid/overlay gayberne 1 1 -3 14 coul/long/offcentre 14 10 1 1.931251 0.539650 1.011545 0.0668 1 0.446082 0.057700 -0.000000 0.6529 1 -0.712230 1.072980 0.000000 -0.4227 1 -0.653529 -1.140853 0.000000 -0.2970 2 -0.422955 -1.245763 0.000000 -0.313 2 0.527142 0.083536 0.000000 0.716 2 -0.856806 0.981621 0.000000 -0.403 3 0.75695 0.585882 0.0 0.5564 3 -0.75695 0.585882 0.0 0.5564 3 0.00000 0.154600 0.0 -1.1128

kspace_style pppm/offcentre 1e-4 10 1 1.931251 0.539650 1.011545 0.0668 1 0.446082 0.057700 -0.000000 0.6529 1 -0.712230 1.072980 0.000000 -0.4227 1 -0.653529 -1.140853 0.000000 -0.2970 2 -0.422955 -1.245763 0.000000 -0.313 2 0.527142 0.083536 0.000000 0.716 2 -0.856806 0.981621 0.000000 -0.403 3 0.75695 0.585882 0.0 0.5564 3 -0.75695 0.585882 0.0 0.5564 3 0.00000 0.154600 0.0 -1.1128

# Pair coefficients: Coulomb and Gay-Berne parameters.
pair_coeff * * coul/long/offcentre
pair_coeff 1 2 gayberne 1.03684 3.4086 0.97313 1 0.36835 0.53249 0.53249 1 14.
pair_coeff 1 3 gayberne 0.443623 3.31645 0.97313 1 0.36835 1 1 1 14.
pair_coeff 2 3 gayberne 0.432826 3.25105 0.53249 0.53249 1 1 1 1 14.
pair_coeff 1 1 gayberne 1.0627 3.4740 0.97313 1 0.36835 0.97313 1 0.36835 14.
pair_coeff 2 2 gayberne 1.0116 3.3432 0.53249 0.53249 1 0.53249 0.53249 1 14.
pair_coeff 3 3 gayberne 0.18519 3.1589 1 1 1 1 1 1 14.

    bond_style ellipsoid
    special_bonds lj/coul 0.0 0.2 0.5
  2 = max # of 1-2 neighbors
  2 = max # of 1-3 neighbors
  4 = max # of 1-4 neighbors
  6 = max # of special neighbors
  special bonds CPU = 0.00538029 secs

    bond_coeff 1     poly 2 0   -0.90854   -3.67091    21.0619    3.46926      cos  2 0   0.468392     1.5682    0.77494          0      cos  2 0   0.051231    1.55637   0.368657          0      cos  2 0   -0.63579    1.57002   -0.40024          0      cos  1 0  -0.291573       1.57      cos  2 0 -0.0454135    1.56739  -0.159876          0      cos  2 0  0.0689315    1.56411   0.326725          0      cos  2 0 -0.0380405    1.56469  -0.222524          0      cos  1 0   0.214176    1.57072      cos  2 0    0.06476      1.555   0.672605          0      poly 2 0    0.63728    2.15358     35.456   0.284144      cos  1 0    1.06641     4.7121      poly 0 0      poly 2 0    1.09113    2.29165    13.2812    1.04108      poly 2 0    1.29123    1.05776    4.62779   0.409837      poly 2 0    1.71005    1.02317    12.3945 -0.0340389



# ----------------- Run Section -----------------

include "04_cg_sample_01.in.run"
# Physical observables.
compute q          all property/atom quatw quati quatj quatk
compute shape           all property/atom shapex shapey shapez
compute temp_trasl      all temp
compute temp_rot        all temp/asphere dof rotate
compute temp_rototrasl  all temp/asphere dof all
compute press_trasl     all pressure temp_trasl

# Output.
thermo          1000
thermo_style custom step etotal evdwl ecoul elong ebond ke pe temp press pxx pyy pzz vol density cpu
thermo_modify temp temp_rototrasl
thermo_modify press press_trasl
thermo_modify flush yes

dump 1 all custom 10000 ${run}.dump id type xu yu zu c_q[1] c_q[2] c_q[3] c_q[4] c_shape[1] c_shape[2] c_shape[3] vx vy vz angmomx angmomy angmomz mol
dump 1 all custom 10000 04_cg_sample_01.dump id type xu yu zu c_q[1] c_q[2] c_q[3] c_q[4] c_shape[1] c_shape[2] c_shape[3] vx vy vz angmomx angmomy angmomz mol

# 2 ns equilibration of the whole sample.
# Relax the cell along the direction perpendicular to the slab.
minimize 0.01 0.01 100 200
WARNING: Using 'neigh_modify every 1 delay 0 check yes' setting during minimization (../min.cpp:177)
PPPMOffcentre initialization ...
  using 12-bit tables for long-range coulomb (../kspace.cpp:323)
  G vector (1/distance) = 0.185222
  grid = 54 54 72
  stencil order = 5
  estimated absolute RMS force accuracy = 0.0394536
  estimated relative force accuracy = 0.000118813
  using double precision FFTs
  3d grid and FFT values/proc = 3600 648
Neighbor list info ...
  update every 1 steps, delay 0 steps, check yes
  max neighbors/atom: 2000, page size: 100000
  master list distance cutoff = 19
  ghost atom cutoff = 19
  binsize = 9.5, bins = 16 16 24
  2 neighbor lists, perpetual/occasional/extra = 2 0 0
  (1) pair gayberne, perpetual
      attributes: half, newton on
      pair build: half/bin/newton
      stencil: half/bin/3d/newton
      bin: standard
  (2) pair coul/long/offcentre, perpetual, copy from (1)
      attributes: half, newton on
      pair build: copy
      stencil: none
      bin: none
Per MPI rank memory allocation (min/avg/max) = 12.53 | 13.32 | 14.22 Mbytes
Step TotEng E_vdwl E_coul E_long E_bond KinEng PotEng Temp Press Pxx Pyy Pzz Volume Density CPU 
       0 3.7244453e+10 3.7245486e+10    4377324.3   -5430685.2      -194914    214848.39 3.7244238e+10    379.37556 2.1205396e+09 6.3605959e+09    326920.59    695958.65    4817557.4    1.4915111            0 
      17   -976708.23    77743.186    4361506.3   -5430730.4   -200075.77    214848.39   -1191556.6    379.37556   -534.22077   -526.50412   -579.97891   -496.17926    4817557.4    1.4915111    1.0642396 
Loop time of 1.06429 on 512 procs for 17 steps with 94995 atoms

99.6% CPU use with 512 MPI tasks x no OpenMP threads

Minimization stats:
  Stopping criterion = energy tolerance
  Energy initial, next-to-last, final = 
         37244238008.2     -1186870.20742     -1191556.61882
  Force two-norm initial, final = 5.91371e+10 1508.33
  Force max component initial, final = 2.53084e+09 17.1616
  Final line search alpha, max atom move = 0.00177889 0.0305286
  Iterations, force evaluations = 17 22

MPI task timing breakdown:
Section |  min time  |  avg time  |  max time  |%varavg| %total
---------------------------------------------------------------
Pair    | 0.04767    | 0.40161    | 0.9832     |  43.0 | 37.73
Bond    | 3.475e-06  | 0.001897   | 0.0065789  |   5.3 |  0.18
Kspace  | 0.037734   | 0.61868    | 0.97372    |  34.6 | 58.13
Neigh   | 0          | 0          | 0          |   0.0 |  0.00
Comm    | 0.0061821  | 0.011178   | 0.014785   |   2.5 |  1.05
Output  | 0          | 0          | 0          |   0.0 |  0.00
Modify  | 0          | 0          | 0          |   0.0 |  0.00
Other   |            | 0.03093    |            |       |  2.91

Nlocal:    185.537 ave 328 max 30 min
Histogram: 51 67 137 1 0 5 59 0 0 192
Nghost:    3949.5 ave 6704 max 1616 min
Histogram: 155 37 0 64 64 0 0 64 0 128
Neighs:    72297.6 ave 157970 max 3693 min
Histogram: 192 64 0 18 46 0 0 0 0 192

Total # of neighbors = 37016373
Ave neighs/atom = 389.667
Ave special neighs/atom = 1.04595
Neighbor list builds = 0
Dangerous builds = 0
timestep 20.
fix             2 all nph/asphere z 1. 1. 20000.
fix_modify      2 press press_trasl
fix             3 all langevin ${temp} ${temp} 2000. 35785 angmom 0.9
fix             3 all langevin 300 ${temp} 2000. 35785 angmom 0.9
fix             3 all langevin 300 300 2000. 35785 angmom 0.9
fix_modify      3 temp temp_rototrasl
run    100000
PPPMOffcentre initialization ...
  using 12-bit tables for long-range coulomb (../kspace.cpp:323)
  G vector (1/distance) = 0.185222
  grid = 54 54 72
  stencil order = 5
  estimated absolute RMS force accuracy = 0.0394536
  estimated relative force accuracy = 0.000118813
  using double precision FFTs
  3d grid and FFT values/proc = 3600 648
Per MPI rank memory allocation (min/avg/max) = 11.41 | 12.2 | 13.1 Mbytes
Step TotEng E_vdwl E_coul E_long E_bond KinEng PotEng Temp Press Pxx Pyy Pzz Volume Density CPU 
      17   -976708.23    77743.186    4361506.3   -5430730.4   -200075.77    214848.39   -1191556.6    379.37556   -534.22077   -526.50412   -579.97891   -496.17926    4817557.4    1.4915111            0 
    1000   -997987.08     93454.17      4370121   -5436794.4    -195995.2    171227.35   -1169214.4    302.35028    -97.27845   -100.72935   -187.85944  -0.62237453    4764125.5    1.5082391    34.986522 
    2000   -999768.77     91890.91    4370046.4   -5436801.5   -196227.05    171322.52   -1171091.3    302.51833   -240.97648   -262.13311   -302.21392   -162.26431      4697375    1.5296714    70.245897 
    3000   -998694.33    91732.898    4371548.8   -5436815.1    -196285.5    171124.54   -1169818.9    302.16874   -181.90697   -152.08031    -262.0859   -124.18012    4629421.8    1.5521247    105.02482 
    4000   -1000453.9    92264.344    4369249.4   -5436859.7   -196119.88    171011.93   -1171465.8     301.9699   -204.33918   -227.16802   -222.72981     -158.537    4569788.9     1.572379    139.52167 
    5000   -1001196.6    91099.702    4369708.9   -5436819.6   -196278.18    171092.56   -1172289.2    302.11227   -239.76275   -215.45631   -305.59061   -195.24775    4508912.4    1.5936083    173.64324 
    6000   -1002242.9    91781.964    4368119.8   -5436892.5    -196420.3    171168.24   -1173411.1    302.24591   -218.50125   -288.59191   -303.84312   -64.661907    4449056.7     1.615048    207.09177 
    7000   -1003567.4    92068.418    4366105.1   -5436897.2   -196159.98    171316.24   -1174883.6    302.50725   -212.25649   -269.95496   -288.80959   -72.687756      4390899    1.6364394    240.52066 
    8000   -1005393.3    91467.787    4365104.3   -5436881.5    -196363.4     171279.5   -1176672.8    302.44236   -186.17772     -219.367   -255.53159    -85.34784    4337136.7    1.6567244    273.32807 
    9000   -1007629.4    92444.378    4361752.9   -5436898.7   -196156.92    171228.94   -1178858.3    302.35309   -147.33936   -177.64932   -177.81848   -95.631091    4289816.1    1.6749996    306.16226 
   10000   -1008673.4    91376.222    4362167.4   -5436904.2    -196468.3    171155.51   -1179828.9    302.22342   -216.04033   -190.51652   -290.22715   -171.74246    4242845.4    1.6935428     339.0006 
   11000   -1008459.8    91882.714      4361509   -5436879.4   -195899.97    170927.85   -1179387.7    301.82142    -177.4072   -252.56093   -210.56399   -70.608998    4199872.5     1.710871    371.49336 
   12000   -1009217.2    92485.125    4360127.7   -5436917.7   -196246.53    171334.19   -1180551.4    302.53894   -182.12513   -188.83709   -247.96942   -101.86402    4153727.9    1.7298774    403.65464 
   13000   -1010421.7    91429.304    4359777.7   -5436944.1   -196293.54     171608.9   -1182030.6    303.02401   -214.74634   -204.37936   -294.97834   -153.74051    4100594.1    1.7522924    435.31251 
   14000   -1011033.2    90643.329    4359812.5   -5436950.3   -196160.38    171621.65   -1182654.8    303.04653   -252.69202    -182.4682   -410.84958   -169.76295    4044484.3    1.7766023    466.24404 
   15000   -1014539.6    91934.849    4355222.9   -5436926.7      -195894    171123.37     -1185663    302.16667   -141.67217   -138.33988   -173.39056   -122.09325    4001946.6    1.7954862     496.9668 
   16000   -1016032.1    92470.938    4353229.4   -5436936.1   -196001.55    171205.24   -1187237.3    302.31124   -61.165255   -124.75245   -112.29636    54.339416    3975610.3    1.8073804    527.44237 
   17000     -1016265    91855.845    4353739.1   -5436948.8   -196146.75    171235.71   -1187500.7    302.36504   -60.772507   -78.682241   -138.30775    39.532674    3963639.8    1.8128388    557.79937 
   18000   -1016553.3    91684.917    4353503.1   -5436933.5   -196145.09    171337.35   -1187890.6    302.54452   -64.621171    -107.6999   -88.537759    13.265073    3956969.6    1.8158947    588.05854 
   19000   -1017658.5      91471.7    4353041.4   -5436924.5   -196034.02    170787.03   -1188445.5    301.57278    -52.61868   -69.897041   -110.75496    17.175249      3952120     1.818123    618.41244 
   20000   -1017867.3    91615.928    4352270.9   -5436889.6   -196150.43    171286.02   -1189153.3    302.45388   -57.106297   -104.91777   -107.37025    44.527199    3950283.7    1.8189681    648.73769 
   21000     -1019367    92053.065    4350875.1   -5436913.9   -196048.39    170667.15   -1190034.1    301.36109   -101.69753   -118.41434   -192.12454  -0.64625357    3947631.7    1.8201901    679.07088 
   22000   -1017457.4    92349.177    4351916.6   -5436867.1   -196100.81    171244.77   -1188702.1    302.38105   -6.8096431   -66.717842   -6.8803631    57.208198    3947187.5    1.8203949    709.29201 
   23000   -1018606.7    91237.741    4351729.4   -5436893.6   -196241.63     171561.4   -1190168.1    302.94015   -117.40088   -16.281953   -240.31898   -103.37731    3947982.1    1.8200285    739.39717 
   24000   -1018731.2    92261.404    4350582.2   -5436893.6   -196361.16    171679.94   -1190411.1    303.14945   -52.961168   -72.097613   -84.730167   -1.3785797    3943937.8    1.8218949    769.59336 
   25000   -1018897.4    92541.552    4350357.7   -5436890.1   -196327.42    171420.86   -1190318.3    302.69198   -43.670429   -32.324973   -80.771981   -22.229714    3942307.4    1.8226484    799.69923 
   26000   -1018648.3    91536.162    4351971.1   -5436900.6   -196361.07    171106.07   -1189754.4    302.13612   -30.928467    43.854766   -121.75748   -13.134739    3941733.1    1.8229139    829.87215 
   27000   -1019286.2    92525.506    4349821.5     -5436892   -195879.11    171137.82   -1190424.1    302.19219    44.232876    39.429551    2.5870337    91.052725    3934326.7    1.8263456    859.95244 
   28000   -1019902.6    92129.958    4350280.6   -5436871.6   -196269.84    170828.31   -1190730.9    301.64566   -53.566966   -39.145787   -60.223407   -61.017633    3942193.2    1.8227011    890.13202 
   29000   -1019921.3    92480.416    4349784.6   -5436887.3   -196371.15    171072.13   -1190993.4     302.0762   -46.147626   -88.949412   -59.109696    5.9459153    3942929.9    1.8223606    920.41242 
   30000   -1019877.9    91801.176    4350733.6   -5436856.5   -196228.93     170672.8   -1190550.7    301.37106   -57.095028   -89.714442   -49.890302   -20.500236    3939460.1    1.8239657     950.5911 
   31000   -1019218.7    91928.975    4351291.1   -5436906.6   -196478.13    170945.94   -1190164.6    301.85338   -72.781254   -63.337589   -110.96527   -44.209474    3939474.1    1.8239592    980.67225 
   32000   -1019996.4    92043.763    4349804.3   -5436930.7   -196665.13    171751.32   -1191747.8     303.2755   -96.073867   -183.43724   -117.98059    6.3659227    3939272.1    1.8240528    1010.8947 
   33000   -1019927.3    92083.284    4350271.6   -5436877.8   -196333.72    170929.31   -1190856.6    301.82401    -90.43318   -116.83387   -126.51364   -23.184053    3943867.3    1.8219275    1041.0935 
   34000   -1020911.8    91914.142    4350347.8   -5436892.4   -196321.03    170039.57   -1190951.4    300.25292   -75.907284   -55.034078   -113.16854    -47.28662    3940672.7    1.8234044    1071.2896 
   35000   -1019403.3    92404.592    4350162.7   -5436902.1   -196410.88    171342.32   -1190745.7     302.5533   -16.562817    24.345563   -79.411348   -1.7564644      3938607    1.8243608    1101.4318 
   36000   -1019651.2    92123.703    4350220.7   -5436923.4   -196587.34    171515.23   -1191166.4    302.85862   -66.213134   -86.939922   -142.16541    32.165999    3940267.3     1.823592    1131.5728 
   37000   -1019826.4    92001.163    4350341.5   -5436895.5   -196487.13    171213.58   -1191039.9    302.32596   -88.523254   -97.164688   -152.75607   -7.8782755    3940875.6    1.8233106    1161.6015 
   38000     -1019997    92642.257    4349449.3   -5436877.6   -196463.43    171252.49   -1191249.5    302.39468    -12.60623     9.654392   -109.71739    61.703282    3933010.3    1.8269568    1191.7798 
   39000     -1020038    92112.642    4350435.8   -5436891.1   -196530.99    170835.64   -1190873.6     301.6586   -42.271724    -77.33159    -82.54771    25.166619    3938314.7    1.8244962       1221.9 
   40000   -1021413.9     92100.96    4348981.7   -5436930.2   -196405.12    170838.78   -1192252.7    301.66415    -96.82022   -99.191846   -177.97243   -11.743577    3938239.2    1.8245312    1252.1288 
   41000   -1020648.9    92210.795    4349482.1   -5436894.7   -196385.81    170938.69   -1191587.6    301.84057   -17.071407    9.3028007   -100.44563    42.940647    3934984.9    1.8260401    1282.2671 
   42000     -1020011    91214.769      4351013   -5436912.8   -196448.69    171122.63   -1191133.7    302.16538   -79.229711   -53.686598   -165.64506   -10.720164    3938084.6    1.8246028    1312.3405 
   43000   -1020812.7    92346.024    4348912.7   -5436883.6   -196575.82    171387.98   -1192200.6    302.63392   -39.337438    -20.66543    -126.0904    25.465751      3935019    1.8260243    1342.5747 
   44000   -1021490.2    92804.189    4348083.7   -5436915.1    -196611.6    171148.62   -1192638.9    302.21127   -65.672078   -82.128801   -119.37344    1.8482618    3936577.8    1.8253012    1372.8047 
   45000   -1021396.3    93159.284    4347829.7   -5436841.3   -196522.56    170978.56   -1192374.9    301.91098    59.030865    91.632085   -16.042054    102.66599    3932686.6    1.8271072    1402.9431 
   46000   -1019879.9    92749.094    4349437.6   -5436899.9   -196647.14    171480.52   -1191360.4    302.79732    26.740322    17.966331    -64.00823    135.58937    3935471.2    1.8258145    1433.1147 
   47000   -1020920.6    92160.283      4349129   -5436936.1   -196390.01    171116.17   -1192036.8    302.15396   -39.152796   -72.714526   -80.032131    37.340607    3933913.9    1.8265372    1463.3756 
   48000   -1021181.9    93119.061      4347783   -5436893.2   -196235.97    171045.21   -1192227.1    302.02867   -27.006629   -14.702191   -113.09466    51.900611    3936628.4    1.8252777    1493.5503 
   49000   -1021499.8    92545.071    4348457.2   -5436893.3   -196648.05    171039.31   -1192539.1    302.01824   -17.381074    14.611732   -89.680129    27.344376    3936255.7    1.8254505    1523.4475 
   50000   -1020885.1    91564.728    4350094.4   -5436892.5   -196641.03    170989.33   -1191874.4       301.93   -117.28804   -100.42228   -153.29002    -91.39587    3935441.4    1.8258283    1553.6416 
   51000   -1021608.3    92107.509    4348844.5   -5436911.3   -196537.28    170888.21   -1192496.6    301.75144   -99.137531   -74.903205   -138.36618   -87.768325    3938237.6    1.8245319    1583.6962 
   52000   -1019736.8    91856.183    4350925.7   -5436880.9    -196706.9     171069.1   -1190805.9    302.07085   -48.926212    -51.24286   -129.58984    38.924213    3939266.7    1.8240552    1613.8858 
   53000   -1021572.6    92591.419    4348333.3   -5436885.4    -196445.7    170833.86   -1192406.4    301.65545   -35.425066   -28.186888   -57.803624   -17.704895    3934397.8    1.8263126    1644.0502 
   54000   -1021737.6    92373.203    4348212.4   -5436860.4   -196697.39    171234.56   -1192972.2    302.36301   -77.059914   -97.974071   -89.372444   -47.049783      3936906     1.825149    1674.1022 
   55000     -1022288    93189.397    4347229.3   -5436911.9   -196394.77    170599.97     -1192888    301.24247   -4.0947563    28.155135   -49.704255    14.997955    3934899.9    1.8260795    1704.1226 
   56000   -1021027.6    92640.119    4348464.4   -5436883.6   -196217.79     170969.3   -1191996.9    301.89462   -14.534828   -25.111848   -20.698476    7.1979133    3932275.2    1.8272984    1734.0186 
   57000   -1022172.4    92631.408      4347978   -5436876.5   -196732.24    170826.95   -1192999.3    301.64326   -15.070378    -20.08776   -48.990331    24.701202    3931977.9    1.8274366    1764.1934 
   58000   -1021200.6    92065.207    4348700.9   -5436871.7   -196351.84     171256.8   -1192457.4    302.40228     10.98487    25.597462   -63.988928    67.726644    3927572.9    1.8294861     1794.209 
   59000   -1020986.2    92374.022    4349315.4   -5436860.2   -196653.72    170838.27   -1191824.5    301.66325   -14.988247    13.024775   -112.96646    59.585416    3933302.7     1.826821    1824.2789 
   60000   -1020880.1    91724.222    4349861.7   -5436875.8   -196825.73    171235.47   -1192115.6    302.36461   -49.620616   -55.348429   -80.530992   -17.851384    3934445.4    1.8262905     1854.297 
   61000   -1021188.9    91832.205      4348956   -5436884.8   -196458.64    171366.35   -1192555.2    302.59573    -91.27345   -69.684705   -180.94614    -27.84765    3936114.1    1.8255162    1884.2599 
   62000   -1022203.3    92460.661    4347522.7     -5436863   -196575.47    171251.77   -1193455.1    302.39341   -79.505713   -41.461051   -180.06165   -22.114524    3939240.5    1.8240674     1914.205 
   63000   -1021884.1    92907.034    4347305.1     -5436882   -196427.93    171213.73   -1193097.9    302.32623     14.27774    53.748455   -81.608936    70.124353    3931995.6    1.8274283    1944.2091 
   64000   -1021167.2    92746.371    4348247.4   -5436893.6      -196460    171192.58   -1192359.8    302.28889    2.2452916   -14.379607   -55.429084    78.201602    3930002.4    1.8283552    1974.2645 
   65000   -1021267.9    93068.304      4347784   -5436874.6   -196757.18    171511.47   -1192779.4    302.85198    8.6612672    6.0413545   -57.436943     72.69087    3934517.6     1.826257    2004.2708 
   66000   -1021730.4    91822.145    4349315.2   -5436914.2    -196547.2    170593.62   -1192324.1    301.23125   -52.802623    1.6337714   -140.49677   -19.728486    3931732.7    1.8275505    2034.3491 
   67000   -1021644.2    92966.829    4347592.6   -5436854.2   -196596.69    171247.28   -1192891.5    302.38547   -14.056414   -49.098873   0.96840439    6.0983218      3932858    1.8270276    2064.3991 
   68000   -1022183.5    92813.595    4347454.9   -5436895.7   -196610.06    171053.87   -1193237.3    302.04396   -57.320716   -111.07373   -110.12006    47.271605    3938201.4    1.8245487    2094.2876 
   69000   -1020448.2    91503.455    4350473.3   -5436881.2   -196583.73    171040.05   -1191488.2    302.01955   -90.779103   -91.528573   -96.245867   -82.287363    3934021.6    1.8264872    2124.3114 
   70000   -1020906.4    91809.667    4349405.6   -5436858.5   -196458.79    171195.58     -1192102    302.29418   -34.038291    5.0105374   -132.73181    33.739738    3934781.3    1.8261346    2154.6571 
   71000   -1021461.5    92527.878    4348582.7   -5436867.6   -196520.07    170815.64   -1192277.1    301.62329  -0.66433585     -8.97748   -10.617878    27.442023    3933056.1    1.8269356    2184.6274 
   72000   -1021679.5    92914.597    4347860.7   -5436862.6   -196591.99     170999.7   -1192679.2    301.94829    29.227544    24.735843   -62.982841    132.80718    3931371.6    1.8277184    2214.6159 
   73000   -1021988.5    92476.785    4347633.5   -5436874.6   -196518.13    171293.98   -1193282.5    302.46793   -25.803043   -37.297056   -159.20946    113.51139    3933499.9    1.8267295    2244.7938 
   74000   -1020624.8    91994.448    4349053.7   -5436876.7   -196380.45    171584.22     -1192209    302.98043   -69.524732   -66.923269   -83.746764   -56.805154    3936451.6    1.8253597    2275.0299 
   75000   -1022306.4    91394.858    4348891.5   -5436872.6   -196687.42    170967.26   -1193273.7    301.89102   -105.68335   -150.90898   -96.601483   -70.737904    3933669.6    1.8266507    2305.1316 
   76000   -1022736.7    92378.128      4347520   -5436878.2   -196408.11    170651.46   -1193388.2    301.33339   -24.146804    32.079859   -99.781968    1.9701702    3929191.3    1.8287326    2335.1761 
   77000   -1022919.7    91735.618    4347991.2   -5436882.6   -196811.09    171047.19   -1193966.9    302.03217   -102.69187   -44.407276   -116.03094   -155.12375      3931830    1.8275053     2365.327 
   78000   -1022282.9    92448.228    4347919.2   -5436890.2   -196436.62    170676.52   -1192959.4    301.37764    -45.93154   -115.78124   -73.777135    49.829214    3934361.9    1.8263292    2395.4469 
   79000   -1022437.7    93117.811    4346987.6   -5436884.2   -196641.23    170982.39   -1193420.1    301.91773   -12.381813   -19.310148   -32.048206    20.258408    3931579.7    1.8276217     2425.588 
   80000   -1022002.1    92483.845    4347837.8   -5436889.4   -196463.72    171029.29   -1193031.4    302.00054   -28.906408   -51.028952   -44.317061    11.793184    3935394.4    1.8258501    2455.5821 
   81000   -1022501.9    92837.664    4347163.5   -5436886.2   -196853.92    171237.12     -1193739    302.36753    20.414961    28.075408   -39.534934    69.127694    3926803.6    1.8298445    2485.6856 
   82000   -1021250.5    92369.059      4348261   -5436836.2   -196535.81     171491.4     -1192742    302.81654   -24.139389    31.806783    -71.85337   -35.464554    3927917.6    1.8293256    2515.6874 
   83000   -1022379.2    92788.869    4347063.9   -5436881.8   -196452.63    171102.56   -1193481.7    302.12994   -12.844589   -1.8108155   -92.441328    57.597367    3930265.6    1.8282327    2545.7481 
   84000   -1022503.1    92678.908    4347526.3   -5436912.3   -196705.52    170909.47   -1193412.6    301.78897   -60.319303   -82.718417   -32.546936   -65.222276    3930438.1    1.8281525    2575.8764 
   85000   -1022969.6    92382.895      4347015   -5436888.9   -196652.04    171173.44     -1194143    302.25509   -88.733829   -93.090416   -188.90184    12.687992    3933204.9    1.8268665    2605.9201 
   86000   -1020992.5    91778.583    4349370.9   -5436908.6   -196756.75    171523.37   -1192515.9    302.87299   -60.743963    3.8321207    -117.4014   -69.710727    3933870.2    1.8265575    2636.1101 
   87000   -1022572.9     92641.57    4346909.3   -5436838.6   -196643.26    171358.12     -1193931     302.5812   -33.580454   -89.244858   -50.048208    35.411213      3932403     1.827239    2666.2145 
   88000   -1023060.6    92446.389    4346871.2   -5436875.1   -196787.08    171283.93   -1194344.6    302.45019   -32.719938   -76.264543   -7.9842471   -20.491593    3933295.1    1.8268246    2696.3204 
   89000   -1022608.4    92237.267    4347528.4   -5436908.9    -196635.6    171170.48   -1193778.9    302.24986   -63.957742   -74.820444   -156.53326    42.325462    3928936.1    1.8288513    2726.4408 
   90000     -1021573    92025.003    4348195.1   -5436865.9   -196542.56     171615.4   -1193188.4    303.03549   -67.693803   -57.406496   -169.45644    17.145654      3931504    1.8276568    2756.5901 
   91000   -1023881.9    92703.906    4346189.4   -5436900.9   -196467.68    170593.41   -1194475.3    301.23089   -66.829757   -21.565388    -125.5883   -52.928643    3930761.5     1.828002    2786.5913 
   92000   -1022193.1    92574.951    4347788.2   -5436869.8   -196649.29    170962.86     -1193156    301.88325   -35.789548   -6.8468488   -91.874503   -10.486485    3933442.1    1.8267563    2816.5113 
   93000   -1022807.6    91937.997    4348070.6   -5436910.5   -196595.68    170689.92   -1193497.6    301.40129   -97.791598   -5.3317445   -156.42371   -131.81531    3934104.3    1.8264488    2846.6366 
   94000   -1021788.3    92226.585    4348291.8   -5436878.7   -196351.37    170923.37   -1192711.6    301.81352   -63.272313   -79.906566   -78.528542   -30.187329    3935756.4    1.8256821    2876.6244 
   95000   -1022889.4    91806.372    4347892.1   -5436866.8   -196778.75    171057.65   -1193947.1    302.05063   -79.985434   -94.213473   -106.24684   -44.684368      3930505    1.8281213    2906.7856 
   96000   -1021963.3    91844.172    4348342.1     -5436912   -196740.01    171502.49   -1193465.7    302.83612    -81.68231   -22.017382   -158.87075   -70.736722    3930783.8    1.8279917     2936.875 
   97000     -1022800    92864.413    4346450.5   -5436879.2   -196470.77    171235.14   -1194035.1    302.36404   -41.159137   -43.971937   -90.855985    7.4404061    3931641.8    1.8275928    2966.8955 
   98000   -1021549.6    92568.136    4348084.6   -5436850.6   -196779.84    171428.16   -1192977.7    302.70488   -18.167248   -45.375208   -2.8956856   0.33349903    3929246.6    1.8287068    2996.9689 
   99000   -1022777.4    93086.103    4347204.1   -5436895.4   -196892.93    170720.76   -1193498.1    301.45576   -23.602349   -17.415831   -96.812694    36.799037    3933066.2    1.8269309    3026.9692 
  100000   -1021470.5    90964.455    4349673.6   -5436880.8   -196541.03    171313.23   -1192783.7    302.50192   -129.01544   -72.281879   -167.72709   -140.17227    3932815.5    1.8270474    3057.0903 
  100017   -1021277.8    91912.548    4349119.1   -5436925.5   -196405.21    171021.14     -1192299    301.98617   -67.526273   -4.7075912   -107.94345   -88.904639    3933104.7     1.826913    3057.6014 
Loop time of 3057.6 on 512 procs for 100000 steps with 94995 atoms

Performance: 56.515 ns/day, 0.425 hours/ns, 32.705 timesteps/s
100.0% CPU use with 512 MPI tasks x no OpenMP threads

MPI task timing breakdown:
Section |  min time  |  avg time  |  max time  |%varavg| %total
---------------------------------------------------------------
Pair    | 628.81     | 1834.2     | 2687.6     |1809.0 | 59.99
Bond    | 0.010029   | 8.0154     | 21.892     | 307.4 |  0.26
Kspace  | 261.02     | 1111.5     | 2311.7     |2307.7 | 36.35
Neigh   | 18.125     | 18.755     | 19.431     |   8.7 |  0.61
Comm    | 38.534     | 52.827     | 65.22      | 113.4 |  1.73
Output  | 0.36657    | 0.36695    | 0.40023    |   0.2 |  0.01
Modify  | 20.603     | 28.455     | 36.07      |  84.5 |  0.93
Other   |            | 3.463      |            |       |  0.11

Nlocal:    185.537 ave 273 max 69 min
Histogram: 119 41 20 17 4 16 24 18 118 135
Nghost:    4476.48 ave 6199 max 2076 min
Histogram: 64 62 2 64 0 64 9 55 38 154
Neighs:    74709.4 ave 131773 max 10708 min
Histogram: 161 31 0 2 6 18 43 55 86 110

Total # of neighbors = 38251215
Ave neighs/atom = 402.666
Ave special neighs/atom = 1.04595
Neighbor list builds = 6083
Dangerous builds = 3

# ----------------- Run Section -----------------

# The lines above define the system you want to simulate.
# What you do next is up to you.
# Typically a user would minimize and equilibrate
# the system using commands similar to the following:
#  ----   examples   ----
#
#  -- minimize --
# minimize 1.0e-5 1.0e-7 1000 10000
# (Note: Some fixes, for example "shake", interfere with the minimize command,
#        You can use the "unfix" command to disable them before minimization.)
#  -- declare time step for normal MD --
# timestep 1.0
#  -- run at constant pressure (Nose-Hoover)--
# fix   fxnpt all npt temp 300.0 300.0 100.0 iso 1.0 1.0 1000.0 drag 1.0
#  -- ALTERNATELY, run at constant volume (Nose-Hoover) --
# fix   fxnvt all nvt temp 300.0 300.0 500.0 tchain 1
#  -- ALTERNATELY, run at constant volume using Langevin dynamics. --
#  -- (This is good for sparse CG polymers in implicit solvent.)   --
# fix fxLAN all langevin 300.0 300.0 5000 48279
# fix fxNVE all nve  #(<--needed by fix langevin)
#  -- Now, finally run the simulation --
# run   50000
#  ---- (end of examples) ----


Please see the log.cite file for references relevant to this simulation

Total wall time: 0:51:23
