LAMMPS (29 Aug 2024 - Development - patch_4Feb2020-21274-g90b616edd6-modified)


# ----------------- Init Section -----------------

include "04_cg_sample_01.in.init"
# Input variables
variable run    string 04_cg_sample_01
variable ts     equal  15.          # timestep
variable tf     equal  300.         # Equilibrium temperature
variable pf     equal  1.           # Equilibrium pressure
variable cutoff equal  14.          # For interactions in real space
variable skin   equal  4.           # Skin distance for neighbour list
variable s      equal  5            # sample interval for averaging
variable cl     equal  200          # correlation length for averaging
variable prod   equal  100000       # Equilibration steps (2 ns)


# Force field setup.
boundary        p p p
units           real
atom_style hybrid molecular ellipsoid
WARNING: Atom style hybrid defines both, per-type and per-atom masses; both must be set, but only per-atom masses will be used (../atom_vec_hybrid.cpp:132)
bond_style ellipsoid
special_bonds lj/coul 0.0 0.2 0.5
# gamma upsilon mu lj_cutoff coul_cutoff
pair_style molc/long 1 1 -3 ${cutoff} ${cutoff}
pair_style molc/long 1 1 -3 14 ${cutoff}
pair_style molc/long 1 1 -3 14 14

# Neighbour list.
neighbor        ${skin} bin
neighbor        4 bin


# ----------------- Atom Definition Section -----------------

read_data "04_cg_sample_01.data"
Reading data file ...
  orthogonal box = (-74.9454 -72.0258 -36.5586) to (74.9454 72.0258 186.559)
  4 by 2 by 4 MPI processor grid
  reading atoms ...
  98282 atoms
  98282 ellipsoids
  reading velocities ...
  98282 velocities
  scanning bonds ...
  1 = max bonds/atom
  orthogonal box = (-74.9454 -72.0258 -36.5586) to (74.9454 72.0258 186.559)
  4 by 2 by 4 MPI processor grid
  reading bonds ...
  16920 bonds
Finding 1-2 1-3 1-4 neighbors ...
  special bond factors lj:    0        0.2      0.5     
  special bond factors coul:  0        0.2      0.5     
     2 = max # of 1-2 neighbors
     2 = max # of 1-3 neighbors
     4 = max # of 1-4 neighbors
     6 = max # of special neighbors
  special bonds CPU = 0.011 seconds
  read_data CPU = 0.817 seconds

# ----------------- Settings Section -----------------

include "04_cg_sample_01.in.settings"
mass 1 72.0634

# MOLC parameters.
pair_coeff 1 1 1.0627 3.4740 0.97313 1 0.36835 4 1.931251    0.539650    1.011545    0.0668 0.446082    0.057700   -0.000000    0.6529 -0.712230    1.072980    0.000000   -0.4227 -0.653529   -1.140853    0.000000   -0.2970
mass 2  58.0366

# MOLC parameters.
pair_coeff 2 2 1.0116 3.3432 0.53249 0.53249 1 3 -0.422955   -1.245763    0.000000   -0.313 0.527142    0.083536    0.000000    0.716 -0.856806    0.981621    0.000000   -0.403

# 1-2 Bonded potential.
bond_coeff 1 poly 2 0   -0.90854   -3.67091    21.0619    3.46926  cos  2 0   0.468392     1.5682    0.77494          0  cos  2 0   0.051231    1.55637   0.368657          0  cos  2 0   -0.63579    1.57002   -0.40024          0  cos  1 0  -0.291573       1.57  cos  2 0 -0.0454135    1.56739  -0.159876          0  cos  2 0  0.0689315    1.56411   0.326725          0  cos  2 0 -0.0380405    1.56469  -0.222524          0  cos  1 0   0.214176    1.57072  cos  2 0    0.06476      1.555   0.672605          0  poly 2 0    0.63728    2.15358     35.456   0.284144  cos  1 0    1.06641     4.7121  poly 0 0  poly 2 0    1.09113    2.29165    13.2812    1.04108  poly 2 0    1.29123    1.05776    4.62779   0.409837  poly 2 0    1.71005    1.02317    12.3945 -0.0340389

mass 3  40.4364

# MOLC parameters.
# epsilon0, sigma0, eps_x, eps_y, eps_z, n_charges, (xi, yi, zi, qi)_ntimes
pair_coeff 3 3 0.18519 3.1589 1 1 1 3 0.00000  0.154600  0.0  -1.1128 0.75695  0.585882  0.0   0.5564 -0.75695  0.585882  0.0   0.5564

# Force field setup.
kspace_style pppm/molc 1e-4



# ----------------- Run Section -----------------

include "04_cg_sample_01.in.run"
# Physical observables.
compute q               all property/atom quatw quati quatj quatk
compute diameter        all property/atom shapex shapey shapez
compute temp_trasl      all temp
compute temp_rototrasl  all temp/asphere dof all
compute press_trasl     all pressure temp_trasl

# Derived variables.
variable d       equal ${cl}*$s          # thermo interval
variable d       equal 200*$s          
variable d       equal 200*5          
variable dcycle  equal ${prod}/$s        # dump interval
variable dcycle  equal 100000/$s        
variable dcycle  equal 100000/5        

# Output.
thermo          $d
thermo          1000
thermo_style custom step etotal evdwl ecoul elong ebond ke pe temp press pxx pyy pzz vol density cpu
thermo_modify temp temp_rototrasl
thermo_modify press press_trasl
thermo_modify flush yes

# Save the trajectory.
dump TRJ all custom ${dcycle} ${run}.dump id type xu yu zu c_q[1] c_q[2] c_q[3] c_q[4] c_diameter[1] c_diameter[2] c_diameter[3] vx vy vz angmomx angmomy angmomz mol
dump TRJ all custom 20000 ${run}.dump id type xu yu zu c_q[1] c_q[2] c_q[3] c_q[4] c_diameter[1] c_diameter[2] c_diameter[3] vx vy vz angmomx angmomy angmomz mol
dump TRJ all custom 20000 04_cg_sample_01.dump id type xu yu zu c_q[1] c_q[2] c_q[3] c_q[4] c_diameter[1] c_diameter[2] c_diameter[3] vx vy vz angmomx angmomy angmomz mol
dump_modify TRJ colname c_q[1] quatw colname c_q[2] quati colname c_q[3] quatj colname c_q[4] quatk sort id

# Remove bad contacts from the initial guess.
minimize 0.01 0.01 100 200

CITE-CITE-CITE-CITE-CITE-CITE-CITE-CITE-CITE-CITE-CITE-CITE-CITE

Your simulation uses code contributions which should be cited:

- USER-MOLC package:

Article{C9CP04120F,
  author = {Ricci, Matteo and Roscioni, Otello Maria and Querciagrossa, Lara and Zannoni, Claudio},
  title  = {MOLC. A reversible coarse grained approach using anisotropic beads for the modelling of organic functional materials},
  journal  = {Phys. Chem. Chem. Phys.},
  year  = 2019,
  volume = 21,
  issue  = 47,
  pages  = {26195-26211},
  publisher = {The Royal Society of Chemistry},
  doi  = {10.1039/C9CP04120F},
  url  = {http://dx.doi.org/10.1039/C9CP04120F},
  abstract  = {We describe the development and implementation of a coarse grained (CG) modelling approach where complex organic molecules, and particularly the \pi-conjugated ones often employed in organic electronics, are modelled in terms of connected sets of attractive--repulsive biaxial Gay--Berne ellipsoidal beads. The CG model is aimed at reproducing realistically large scale morphologies (e.g. up to 100 nm thick films) for the materials involved, while being able to generate, with a back-mapping procedure, atomistic coordinates suitable, with limited effort, to be applied for charge transport calculations. Detailed methodology and an application to the common hole transporter material \alpha-NPD are provided.}
}

- Type Label Framework: https://doi.org/10.1021/acs.jpcb.3c08419

@Article{Gissinger24,
 author = {Jacob R. Gissinger, Ilia Nikiforov, Yaser Afshar, Brendon Waters, Moon-ki Choi, Daniel S. Karls, Alexander Stukowski, Wonpil Im, Hendrik Heinz, Axel Kohlmeyer, and Ellad B. Tadmor},
 title = {Type Label Framework for Bonded Force Fields in LAMMPS},
 journal = {J. Phys. Chem. B},
 year =    2024,
 volume =  128,
 number =  13,
 pages =   {3282--3297}
}

CITE-CITE-CITE-CITE-CITE-CITE-CITE-CITE-CITE-CITE-CITE-CITE-CITE

PPPM/MOlC initialization ...
  using 12-bit tables for long-range coulomb (../kspace.cpp:342)
  G vector (1/distance) = 0.18623151
  grid = 54 54 75
  stencil order = 5
  estimated absolute RMS force accuracy = 0.03747114
  estimated relative force accuracy = 0.00011284322
  using double precision KISS FFT
  3d grid and FFT values/proc = 94123 0
Generated 3 of 3 mixed pair_coeff terms from arithmetic mixing rule
Neighbor list info ...
  update: every = 1 steps, delay = 0 steps, check = yes
  max neighbors/atom: 2000, page size: 100000
  master list distance cutoff = 18
  ghost atom cutoff = 18
  binsize = 9, bins = 17 17 25
  1 neighbor lists, perpetual/occasional/extra = 1 0 0
  (1) pair molc/long, perpetual
      attributes: half, newton on
      pair build: half/bin/newton
      stencil: half/bin/3d
      bin: standard
Per MPI rank memory allocation (min/avg/max) = 12.29 | 19.19 | 30.19 Mbytes
   Step         TotEng         E_vdwl         E_coul         E_long         E_bond         KinEng         PotEng          Temp          Press           Pxx            Pyy            Pzz           Volume        Density          CPU      
         0   4.0381783e+10  4.038285e+10   4578503.7     -5673378.8     -195370.34      222600.62      4.038156e+10   379.91838      2.2991627e+09  6.8964649e+09  327085.87      696174.08      4817557.4      1.5373246      0            
        17  -1006345.7      83587.65       4561385       -5673405.8     -200513.17      222600.62     -1228946.4      379.91838     -552.36445     -511.81971     -601.73663     -543.53701      4817557.4      1.5373246      18.199156    
Loop time of 18.7436 on 32 procs for 17 steps with 98282 atoms

97.2% CPU use with 32 MPI tasks x no OpenMP threads

Minimization stats:
  Stopping criterion = energy tolerance
  Energy initial, next-to-last, final = 
      40381560132.1598  -1222664.63184546  -1228946.35524795
  Force two-norm initial, final = 6.1577828e+10 1551.2344
  Force max component initial, final = 2.5308359e+09 20.770227
  Final line search alpha, max atom move = 0.0021958024 0.045607315
  Iterations, force evaluations = 17 22

MPI task timing breakdown:
Section |  min time  |  avg time  |  max time  |%varavg| %total
---------------------------------------------------------------
Pair    | 3.41       | 8.7607     | 16.234     | 162.1 | 46.74
Bond    | 3.7802e-05 | 0.037013   | 0.11288    |  22.0 |  0.20
Kspace  | 1.6017     | 9.0528     | 14.355     | 158.6 | 48.30
Neigh   | 0          | 0          | 0          |   0.0 |  0.00
Comm    | 0.23684    | 0.28238    | 0.32287    |   5.2 |  1.51
Output  | 0          | 0          | 0          |   0.0 |  0.00
Modify  | 0          | 0          | 0          |   0.0 |  0.00
Other   |            | 0.6107     |            |       |  3.26

Nlocal:        3071.31 ave        5080 max        1526 min
Histogram: 8 0 8 0 1 7 0 0 0 8
Nghost:        11798.7 ave       19114 max        4607 min
Histogram: 8 0 0 0 8 8 0 0 0 8
Neighs:    1.02801e+06 ave 2.05724e+06 max      177535 min
Histogram: 8 5 3 0 0 0 8 0 0 8

Total # of neighbors = 32896244
Ave neighs/atom = 334.71281
Ave special neighs/atom = 1.0109684
Neighbor list builds = 0
Dangerous builds = 0

# Relax the cell along the direction perpendicular to the slab.
timestep        ${ts}
timestep        15
fix             NPH all nph/asphere z ${pf} ${pf} $(dt*1000)
fix             NPH all nph/asphere z 1 ${pf} $(dt*1000)
fix             NPH all nph/asphere z 1 1 $(dt*1000)
fix             NPH all nph/asphere z 1 1 15000
fix_modify      NPH press press_trasl
fix             TEMP all langevin ${tf} ${tf} $(dt*100) 35785 angmom 0.9
fix             TEMP all langevin 300 ${tf} $(dt*100) 35785 angmom 0.9
fix             TEMP all langevin 300 300 $(dt*100) 35785 angmom 0.9
fix             TEMP all langevin 300 300 1500 35785 angmom 0.9
fix_modify      TEMP temp temp_rototrasl
# To avoid losing atoms, run a brief simulation to allow the box dimension to shrink.
run    ${dcycle} upto
run    20000 upto
PPPM/MOlC initialization ...
  using 12-bit tables for long-range coulomb (../kspace.cpp:342)
  G vector (1/distance) = 0.18623151
  grid = 54 54 75
  stencil order = 5
  estimated absolute RMS force accuracy = 0.03747114
  estimated relative force accuracy = 0.00011284322
  using double precision KISS FFT
  3d grid and FFT values/proc = 19278 7560
Generated 3 of 3 mixed pair_coeff terms from arithmetic mixing rule
Per MPI rank memory allocation (min/avg/max) = 14.58 | 21.56 | 32.68 Mbytes
   Step         TotEng         E_vdwl         E_coul         E_long         E_bond         KinEng         PotEng          Temp          Press           Pxx            Pyy            Pzz           Volume        Density          CPU      
        17  -1006345.7      83587.65       4561385       -5673405.8     -200513.17      222600.62     -1228946.4      379.91838     -552.36444     -511.81972     -601.73662     -543.53697      4817557.4      1.5373246      0            
      1000  -1035406.8      102930.06      4557426.4     -5675440.5     -196377.71      176054.84     -1211461.7      300.47745     -133.3789      -138.46039     -190.03904     -69.128469      4762661.2      1.5550444      631.95992    
      2000  -1036653.5      102348.92      4557716.2     -5675777       -196503.48      175561.79     -1212215.3      299.63596     -175.00803     -194.4604      -197.83781     -134.61121      4707887.1      1.5731366      1255.5829    
      3000  -1036958.6      102457.02      4556763.9     -5675751.7     -196605.44      176177.67     -1213136.3      300.6871      -180.81354     -206.71455     -188.33054     -145.46269      4651349.5      1.5922583      1878.524     
      4000  -1038358.7      103289.51      4555351.8     -5675933.9     -196606.9       175540.86     -1213899.5      299.60024     -115.05409     -72.652734     -183.83825     -84.631993      4595100        1.6117494      2525.1485    
      5000  -1037324        102792.11      4556197.2     -5675934.4     -196812.13      176433.2      -1213757.2      301.12321     -133.11215     -177.40401     -178.03868     -46.066046      4536002.2      1.6327482      3144.4774    
      6000  -1038789.3      102873.81      4554283.1     -5675757.4     -196715.09      176526.33     -1215315.6      301.28216     -161.05971     -104.69243     -286.53444     -91.399752      4478541.9      1.6536966      3741.2426    
      7000  -1039992.1      102487.44      4553486.9     -5675125.4     -196844.47      176003.36     -1215995.5      300.38959     -193.29528     -218.67268     -216.1041      -141.16902      4417247.2      1.6766437      4316.228     
      8000  -1039099.1      101836.13      4553932.4     -5674912.4     -196621.48      176666.24     -1215765.4      301.52095     -204.91923     -166.30814     -283.62309     -165.8576       4350719.9      1.7022814      4906.925     
      9000  -1040558.8      101668.18      4553000.8     -5674690.9     -196672.24      176135.3      -1216694.1      300.61478     -230.6865      -154.70023     -264.80351     -277.08478      4284411        1.7286272      5518.3537    
     10000  -1043691.7      101924.36      4549319.3     -5674620.3     -196652.14      176337.19     -1220028.8      300.95934     -220.22223     -220.16211     -292.77393     -154.2966       4217686.4      1.7559745      6144.4531    
     11000  -1044040        102076.68      4547462.2     -5673195.8     -196349.45      175966.33     -1220006.3      300.32639     -159.81471     -147.39226     -170.85542     -161.18281      4158146.9      1.7811178      6701.7228    
     12000  -1045790.4      102227.14      4544448.4     -5672714.2     -195855.06      176103.35     -1221893.7      300.56025     -60.188825     -12.764872     -148.6688      -15.027871      4112517.8      1.8008797      7250.5398    
     13000  -1048541.7      102197.97      4541428.4     -5671443.9     -196191.2       175466.99     -1224008.7      299.47416     -23.550478      22.044274     -69.277557     -20.974238      4081136.5      1.8147273      7801.8276    
     14000  -1049946.9      102695.8       4538394.6     -5670989.4     -196076.09      176028.19     -1225975.1      300.43197      39.767048      73.927092      120.54843     -75.255187      4056720.5      1.8256495      8343.3621    
     15000  -1049035        102432.14      4538628.2     -5670616.5     -196078.25      176599.45     -1225634.4      301.40696      79.530908      121.34782      87.275581      22.970201      4046243.7      1.8303766      8883.0231    
     16000  -1048767.4      102300.36      4538904.6     -5669836.2     -195820.32      175684.13     -1224451.5      299.84476      70.76684       156.24298      59.721914     -9.4664523      4036040.6      1.8350038      9423.765     
     17000  -1049078.2      102307.56      4537873.4     -5669082.8     -196204.63      176028.3      -1225106.5      300.43217      123.72397      189.76328      93.727153      81.06812       4033526.7      1.8361474      10017.958    
     18000  -1048445.5      102000.65      4537742.7     -5668693.8     -195851.81      176356.79     -1224802.3      300.99281      89.703819      161.97918      121.52744     -11.109479      4029564.4      1.8379529      10627.826    
     19000  -1050129.4      103054.57      4535938.9     -5668589.6     -196318.94      175785.77     -1225915.1      300.01822      177.22765      263.13284      172.51581      96.506059      4024187.5      1.8404087      11281.041    
     20000  -1048779.2      103159.5       4535991.6     -5667963.1     -196000.76      176033.54     -1224812.7      300.4411       195.7162       336.30325      238.49482      7.8337348      4023077.6      1.8409164      11895.816    
Loop time of 11896.3 on 32 procs for 19983 steps with 98282 atoms

Performance: 2.177 ns/day, 11.024 hours/ns, 1.680 timesteps/s, 165.090 katom-step/s
97.6% CPU use with 32 MPI tasks x no OpenMP threads

MPI task timing breakdown:
Section |  min time  |  avg time  |  max time  |%varavg| %total
---------------------------------------------------------------
Pair    | 2666.2     | 6703       | 10444      |3534.7 | 56.34
Bond    | 0.019312   | 31.952     | 88.189     | 583.5 |  0.27
Kspace  | 974.15     | 4692.3     | 8697.6     |4192.0 | 39.44
Neigh   | 83.581     | 85.533     | 88.446     |  18.8 |  0.72
Comm    | 196.78     | 232.52     | 248.78     | 134.2 |  1.95
Output  | 0.049508   | 0.11473    | 0.51635    |  35.6 |  0.00
Modify  | 117.26     | 123.49     | 130.52     |  35.3 |  1.04
Other   |            | 27.45      |            |       |  0.23

Nlocal:        3071.31 ave        4222 max        1347 min
Histogram: 8 0 0 0 0 8 0 0 8 8
Nghost:        12798.6 ave       17742 max        7759 min
Histogram: 8 0 0 0 8 8 0 0 0 8
Neighs:    1.06977e+06 ave 1.72425e+06 max      197902 min
Histogram: 8 0 0 0 8 0 0 0 8 8

Total # of neighbors = 34232602
Ave neighs/atom = 348.30999
Ave special neighs/atom = 1.0109684
Neighbor list builds = 1272
Dangerous builds = 0
# Run the remaining production steps.
run    ${prod} upto
run    100000 upto
PPPM/MOlC initialization ...
  using 12-bit tables for long-range coulomb (../kspace.cpp:342)
  G vector (1/distance) = 0.18666175
  grid = 54 54 64
  stencil order = 5
  estimated absolute RMS force accuracy = 0.039735829
  estimated relative force accuracy = 0.00011966327
  using double precision KISS FFT
  3d grid and FFT values/proc = 19278 7560
Generated 3 of 3 mixed pair_coeff terms from arithmetic mixing rule
Per MPI rank memory allocation (min/avg/max) = 15.64 | 24.37 | 32.46 Mbytes
   Step         TotEng         E_vdwl         E_coul         E_long         E_bond         KinEng         PotEng          Temp          Press           Pxx            Pyy            Pzz           Volume        Density          CPU      
     20000  -1048779.2      103159.5       4549096.7     -5681068.1     -196000.76      176033.54     -1224812.7      300.4411       195.44752      337.90814      239.67478      8.7596532      4023077.6      1.8409164      0            
     21000  -1049414.6      102693.39      4549704.4     -5681299.7     -195943.18      175430.39     -1224845        299.41169      169.95562      206.28008      254.23173      47.082511      4018980.6      1.8427931      608.41971    
     22000  -1048550.8      102463.67      4549890.2     -5680934.9     -196054.79      176084.98     -1224635.8      300.5289       155.57798      256.36261      234.31102     -21.608557      4022227.6      1.8413055      1157.5814    
     23000  -1049730.3      101941.4       4549025.7     -5680166.3     -195931.06      175399.95     -1225130.3      299.35973      94.620368      214.60342      189.31875     -121.70882      4018960.2      1.8428025      1797.2221    
     24000  -1048878.2      103514.7       4546882.8     -5679539.8     -195897.77      176161.86     -1225040.1      300.6601       201.08063      334.65506      286.08242     -8.7418191      4013117        1.8454856      2356.6041    
     25000  -1047915.2      102332.94      4548313.1     -5679374.8     -196126.77      176940.25     -1224855.5      301.98862      211.54962      376.14922      228.36994      32.943103      4007032.4      1.848288       2906.6061    
     26000  -1048751.7      102140.94      4547707.2     -5678992.3     -195911.43      176303.94     -1225055.6      300.9026       134.72284      269.60547      165.63613     -33.255756      4010700.2      1.8465977      3445.4556    
     27000  -1049487.3      103088.69      4547354.2     -5679413.4     -196048.14      175531.35     -1225018.6      299.58401      190.10238      322.47745      216.16213      29.023783      4010204.9      1.8468257      4010.0582    
     28000  -1049230.4      103844.81      4545901.3     -5678781.7     -195741.78      175547.08     -1224777.4      299.61086      225.58756      411.29512      274.39544     -2.0439283      4012861        1.8456034      4578.8108    
     29000  -1049605.5      103385.22      4546594       -5679066.5     -196244.26      175726.1      -1225331.6      299.91638      220.42333      251.4273       330.43758      85.919459      4007792.8      1.8479372      5134.9206    
     30000  -1048042.2      103255.83      4546865.5     -5678167.3     -195941.17      175944.85     -1223987.1      300.28974      211.29438      340.56782      337.59324     -48.107793      4009838        1.8469947      5688.5917    
     31000  -1048404.8      102901.54      4547656.8     -5678927.9     -196184.4       176149.18     -1224554        300.63847      188.27417      278.69218      291.80396     -4.3874076      4012260.3      1.8458797      6242.9016    
     32000  -1048908.4      102398.47      4547292.3     -5678315.4     -196085.65      175801.77     -1224710.2      300.04553      159.41036      288.02368      272.43889     -81.94717       4007368.3      1.848133       6783.477     
     33000  -1048019.6      102547.02      4548276.6     -5678488       -195985.29      175630        -1223649.6      299.75238      213.26052      310.13894      335.57594     -4.480254       4006083.2      1.8487259      7324.6432    
     34000  -1050382.9      103130.2       4545907       -5678968.2     -195970.37      175518.51     -1225901.4      299.56209      171.89704      318.3279       253.09786     -44.246951      4008348        1.8476813      7865.0284    
     35000  -1048344.9      102916.06      4546346.6     -5677879.9     -195772.27      176044.65     -1224389.6      300.46007      184.93527      330.93257      277.27054     -58.895185      4006041.2      1.8487453      8403.9185    
     36000  -1048785.1      103387.15      4546471.6     -5677973.5     -196072.11      175401.68     -1224186.8      299.36269      234.84222      409.4629       339.95076     -42.278591      4006296.9      1.8486273      8944.1385    
     37000  -1048247.7      104048.32      4545535.8     -5677605.4     -196050.96      175824.54     -1224072.3      300.0844       262.89972      379.45676      440.5111      -30.550263      4003301.2      1.8500106      9482.6778    
     38000  -1049025.4      102896.5       4545851.9     -5677878.4     -196089.86      176194.44     -1225219.8      300.71571      179.57649      301.53379      284.72514     -48.945329      4003395.1      1.8499672      10034.537    
     39000  -1046911.4      103734.34      4546147.8     -5677531       -195776.4       176513.91     -1223425.3      301.26096      260.54906      369.62513      404.2728       12.801466      4002007.4      1.8506087      10572.233    
     40000  -1048224.8      102498.41      4546912.1     -5677576.8     -196118.32      176059.86     -1224284.6      300.48602      199.40584      361.50984      292.30015     -58.573248      4000131.7      1.8514765      11127.141    
     41000  -1047979.7      102781.11      4546500.1     -5677383.8     -195874.52      175997.43     -1223977.1      300.37947      216.48626      404.70611      258.45595     -14.094764      4002318.9      1.8504646      11677.062    
     42000  -1047327.3      102696.12      4546343.2     -5676718.3     -196073.14      176424.81     -1223752.1      301.10889      210.26636      347.66636      375.50065     -93.666823      4002313.7      1.8504671      12221.49     
     43000  -1048457.9      103561.21      4545222.9     -5677206.1     -196068.42      176032.43     -1224490.3      300.4392       210.84776      366.55058      353.90946     -90.755454      4006879.7      1.8483584      12771.308    
     44000  -1049516.4      103604.21      4544562.6     -5677381.7     -196090.5       175788.96     -1225305.3      300.02367      205.87746      414.19097      262.26229     -53.282969      4001363.6      1.8509064      13314.28     
     45000  -1050256.6      103065.31      4545685.5     -5677964.2     -196316.84      175273.67     -1225530.3      299.14422      215.63467      348.02436      295.08998      2.4155744      4003176.4      1.8500683      13879.179    
     46000  -1047941.1      103814.9       4544270.4     -5675861       -196293.63      176128.17     -1224069.3      300.60261      285.0758       425.5162       429.10467      1.0100991      3995646.8      1.8535546      14443.227    
     47000  -1048985.3      104028.74      4544087.5     -5676484.6     -196469.07      175852.12     -1224837.4      300.13147      254.41405      450.09629      370.08193     -60.21184       3997495.9      1.8526973      15071.675    
     48000  -1048975.2      103803.83      4544899.7     -5677354.5     -196098.1       175773.83     -1224749.1      299.99785      264.51945      356.04393      359.50445      82.708105      3999427.7      1.8518024      15642.169    
     49000  -1048635.3      103484.87      4545329.3     -5676940.8     -196263.84      175755.13     -1224390.4      299.96593      277.5631       417.63712      353.48515      63.56478       3995073.9      1.8538205      16223.689    
     50000  -1049134.6      103437.73      4544602.2     -5676746.1     -195973.34      175544.93     -1224679.5      299.60718      284.05777      490.23574      342.26352      26.945553      3992307.9      1.8551048      16771.622    
     51000  -1048408.4      103332.57      4545284.3     -5676682.7     -196020.75      175678.13     -1224086.6      299.83452      281.58083      417.67746      389.22611      35.816547      3993132.8      1.8547216      17312.548    
     52000  -1047789.1      103981.67      4544071       -5675747.6     -196065.94      175971.84     -1223760.9      300.33579      273.32339      449.77019      416.25588     -46.131543      3997582.9      1.8526569      17852.585    
     53000  -1047904.5      103737.91      4544502.1     -5676350       -196090.38      176295.93     -1224200.4      300.88892      303.55877      437.47991      439.13012      29.973789      3993993.5      1.8543219      18404.682    
     54000  -1048846.1      103682.41      4544515.3     -5676926.1     -196136.96      176019.2      -1224865.3      300.41664      275.50898      375.92937      442.28868      13.495024      3995399.4      1.8536694      18945.264    
     55000  -1048966.7      103516.22      4544289.7     -5676090.1     -196261.9       175579.38     -1224546.1      299.66598      274.09228      417.38708      377.6822       32.266471      3994500.2      1.8540867      19483.632    
     56000  -1048356.1      103782.85      4544064.1     -5676079.9     -196200.3       176077.15     -1224433.3      300.51553      281.80967      441.31141      425.50578     -16.45362       3995063.3      1.8538254      20041.503    
     57000  -1047033.5      102772         4545532.3     -5675080.9     -196096.95      175839.99     -1222873.5      300.11076      265.56173      447.52405      329.39984      24.811367      3991997.1      1.8552493      20602.654    
     58000  -1048709        104301.78      4543297.9     -5676245.9     -196059.17      175996.43     -1224705.4      300.37777      328.06083      471.70355      411.65788      103.54829      3995222.7      1.8537514      21174.954    
     59000  -1049010.8      104734.05      4542327.1     -5675900.6     -196072.44      175901.12     -1224911.9      300.21509      333.03762      506.82872      443.95415      51.567543      3992403        1.8550606      21754.92     
     60000  -1049053.4      104939.3       4543028.1     -5676556.9     -196079.21      175615.23     -1224668.6      299.72716      324.44725      442.13496      443.38333      89.17064       3996692.8      1.8530695      22326.537    
     61000  -1050258.4      103335.16      4544097.7     -5677068.5     -195874.61      175251.77     -1225510.2      299.10683      224.41616      361.50045      353.69485     -32.854477      3998276.4      1.8523356      22876.405    
     62000  -1049176.2      102918.16      4545161.7     -5676687.8     -196375.7       175807.37     -1224983.6      300.0551       239.97813      413.68508      340.37493     -34.215886      3994795.4      1.8539497      23425.336    
     63000  -1046800.3      102635.85      4545813.5     -5675933.5     -195891.57      176575.51     -1223375.8      301.36609      234.6282       374.64922      392.85565     -67.425106      3998166.8      1.8523864      23980.653    
     64000  -1048570.2      103356.53      4544078.6     -5675999.6     -196089.91      176084.22     -1224654.4      300.52759      239.93823      353.35858      400.47329     -26.241532      3995529.8      1.8536089      24538.986    
     65000  -1048868.3      103163.12      4543834.7     -5676075.2     -195950.26      176159.3      -1225027.6      300.65574      239.76105      366.15314      367.22403     -18.484316      3992031.6      1.8552332      25122.535    
     66000  -1047960.8      104466.37      4544309.1     -5676269.9     -196031.41      175565.06     -1223525.9      299.64154      344.47138      498.976        489.47322      50.500925      3996691.7      1.8530701      25661.12     
     67000  -1049081.6      103202.06      4544109.6     -5676342.2     -196168.94      176117.98     -1225199.5      300.58522      248.62326      384.69857      404.38167     -46.767505      3992934.1      1.8548139      26192.888    
     68000  -1049169.9      103361.95      4543394.9     -5675899.1     -195986.93      175959.17     -1225129.1      300.31418      284.79597      455.25042      433.09484     -37.88877       3988884.9      1.8566967      26723.422    
     69000  -1048588        103167.71      4544792       -5676616.4     -195949.86      176018.45     -1224606.5      300.41536      235.91584      373.41192      372.29837     -39.493636      3994910.9      1.8538961      27267.58     
     70000  -1049332.9      103799.21      4543985.4     -5676602.5     -196006.73      175491.68     -1224824.6      299.5163       284.11006      435.68904      413.68144      1.8966702      3993969.2      1.8543332      27837.222    
     71000  -1047674        103024         4545249.7     -5676052.8     -195921.43      176026.61     -1223700.6      300.42928      274.52346      416.17696      455.15578     -45.854967      3996133        1.8533291      28393.211    
     72000  -1048950.2      103522.31      4544355.2     -5676731.3     -196228.62      176132.28     -1225082.5      300.60963      274.59475      405.62608      447.14013     -22.589284      3992619.5      1.85496        28967.822    
     73000  -1049600.2      103983.34      4543625       -5676666.4     -196114.3       175572.17     -1225172.4      299.65368      272.38727      437.79916      420.9657      -36.740097      3991883.3      1.8553022      29535.15     
     74000  -1050275.4      103957.88      4542857.8     -5675917       -196311.31      175137.25     -1225412.6      298.91138      300.31067      471.87684      416.95715      16.243618      3989932.7      1.8562092      30110.924    
     75000  -1049142.6      103502.53      4543756.8     -5675999.7     -196185.18      175782.89     -1224925.5      300.01331      262.14494      455.04154      399.05789     -66.325028      3990945.8      1.855738       30671.207    
     76000  -1049550.3      104028.89      4543217.2     -5676285.4     -196347.93      175836.99     -1225387.2      300.10564      254.37709      348.08722      401.83876      16.842405      3994443.9      1.8541128      31234.575    
     77000  -1048567.9      103861.96      4543378.8     -5675857       -196164.46      176212.81     -1224780.7      300.74707      372.56909      549.51699      430.44155      143.97012      3984120.3      1.8589172      31809.716    
     78000  -1049347.9      104113.49      4542236.7     -5675597.9     -196252.63      176152.48     -1225500.4      300.6441       316.50783      417.63655      427.11621      101.55842      3990609.4      1.8558944      32381.308    
     79000  -1048185.2      104359.15      4543133.4     -5675389.8     -196318.43      176030.55     -1224215.7      300.436        349.73593      515.72893      526.11299      3.7815549      3991628.5      1.8554206      32952.87     
     80000  -1049884.7      104742.72      4541581.5     -5675785.7     -196099.06      175675.84     -1225560.6      299.83062      290.25657      471.8589       397.90265      0.79692882     3991316.8      1.8555655      33494.544    
     81000  -1048929.5      103538.52      4543156.3     -5675824       -195992.87      176192.49     -1225122        300.71238      292.2609       416.69898      480.98855     -18.425182      3987706.2      1.8572456      34040.168    
     82000  -1049928.1      103930.19      4542828.1     -5676429.5     -195950.67      175693.85     -1225621.9      299.86135      301.06369      469.89303      443.45977     -3.4089987      3991571.5      1.8554471      34590.222    
     83000  -1048181.1      103623.52      4543013.1     -5675287.7     -196161.34      176631.4      -1224812.5      301.46148      309.54748      458.02614      483.52843     -15.169544      3984565.8      1.8587094      35153.01     
     84000  -1048705.5      104554.32      4542874.7     -5676025.1     -196147.59      176038.13     -1224743.7      300.44893      370.75119      492.31617      495.5133       125.11201      3986288.8      1.857906       35696.048    
     85000  -1050236.9      104217.74      4541846.2     -5676270.6     -196052.37      176022.1      -1226259        300.42158      301.63281      437.62259      451.29449      17.871272      3988888.5      1.8566951      36242.214    
     86000  -1049432.4      103835.58      4543279.9     -5676025.8     -196152.1       175630.03     -1225062.4      299.75242      270.65162      465.59106      403.07176     -55.064993      3988862.8      1.8567071      36819.417    
     87000  -1049004.3      103497.54      4543523.5     -5675694.4     -196451.21      176120.28     -1225124.6      300.58915      275.93464      443.58042      442.12503     -52.142823      3987485.6      1.8573483      37383.185    
     88000  -1049580.9      104063.11      4542483.1     -5675593.7     -196147.55      175614.12     -1225195        299.72528      285.82106      424.44659      427.44293      14.841875      3988594.1      1.8568321      37923.733    
     89000  -1049682.8      103415.54      4543040.8     -5675907.5     -196157.77      175926.14     -1225608.9      300.2578       250.13397      434.29734      350.22688     -38.604508      3989782.1      1.8562792      38465.305    
     90000  -1049574.5      102948.3       4543489.1     -5675810.7     -196256.62      176055.44     -1225629.9      300.47848      204.41766      333.79214      342.15815     -63.021389      3990611.3      1.8558935      39005.634    
     91000  -1049925.9      103853.65      4542809.1     -5676193.9     -196432.32      176037.6      -1225963.5      300.44804      274.79123      375.9167       424.42252      21.036195      3990287.8      1.856044       39542.02     
     92000  -1047953.7      103673.83      4543073.3     -5675395.5     -196157.56      176852.16     -1224805.9      301.83826      289.66489      491.02033      421.40111     -38.025364      3988518.6      1.8568673      40076.736    
     93000  -1048351.8      103695.78      4542757.6     -5675243.7     -196034.6       176473.09     -1224824.9      301.1913       315.33474      472.76436      442.91893      36.431099      3987311.5      1.8574294      40617.047    
     94000  -1049103.3      102979.48      4543891.8     -5675594.5     -196062.47      175682.37     -1224785.7      299.84175      285.90424      424.43711      414.48399      20.765816      3986684.3      1.8577216      41153.092    
     95000  -1048292.5      104206.28      4542556.6     -5675031.2     -196183.84      176159.71     -1224452.2      300.65645      333.79785      506.47146      475.53336      13.084021      3988800.3      1.8567362      41691.671    
     96000  -1049583.1      104355.53      4542217.6     -5676031.4     -196056.93      175932.19     -1225515.3      300.26813      321.54931      514.12411      478.09497     -24.136262      3988164.6      1.8570321      42228.714    
     97000  -1048741        104180.8       4542852       -5675452.6     -196046.88      175725.62     -1224466.6      299.91556      334.6234       571.05677      422.9365       12.562942      3991214.7      1.8556129      42762.011    
     98000  -1047812        103251.47      4543614       -5674756.1     -196101.99      176180.68     -1223992.7      300.69224      281.80891      450.30326      417.56743     -21.462595      3989465.1      1.8564267      43299.497    
     99000  -1049478.7      104163.93      4541761.1     -5675358       -196212.94      176167.16     -1225645.9      300.66916      320.22388      500.53535      422.74445      35.447301      3986019.2      1.8580316      43836.394    
    100000  -1049308.2      105265.38      4540830.9     -5675078.6     -196050.86      175724.9      -1225033.1      299.91435      382.08023      504.56755      544.47507      91.339951      3987013.6      1.8575682      44375.117    
Loop time of 44375.3 on 32 procs for 80000 steps with 98282 atoms

Performance: 2.336 ns/day, 10.272 hours/ns, 1.803 timesteps/s, 177.183 katom-step/s
97.7% CPU use with 32 MPI tasks x no OpenMP threads

MPI task timing breakdown:
Section |  min time  |  avg time  |  max time  |%varavg| %total
---------------------------------------------------------------
Pair    | 11451      | 27775      | 39440      |6410.1 | 62.59
Bond    | 0.077482   | 127.78     | 330.2      |1087.0 |  0.29
Kspace  | 3151.1     | 14726      | 30929      |8732.3 | 33.18
Neigh   | 297.56     | 303.41     | 313.95     |  33.4 |  0.68
Comm    | 792.98     | 918.87     | 978.74     | 235.7 |  2.07
Output  | 0.18807    | 0.28371    | 0.87263    |  29.9 |  0.00
Modify  | 420.61     | 435.76     | 448.71     |  43.9 |  0.98
Other   |            | 88.62      |            |       |  0.20

Nlocal:        3071.31 ave        4204 max        1370 min
Histogram: 8 0 0 0 0 8 0 0 8 8
Nghost:        12896.2 ave       17712 max        8010 min
Histogram: 8 0 0 0 8 8 0 0 0 8
Neighs:    1.07307e+06 ave 1.72402e+06 max      206155 min
Histogram: 8 0 0 0 8 0 0 0 8 8

Total # of neighbors = 34338388
Ave neighs/atom = 349.38634
Ave special neighs/atom = 1.0109684
Neighbor list builds = 4953
Dangerous builds = 0
Total wall time: 15:38:14
