units           real
neighbor        3.0 bin
neigh_modify    check yes
boundary        p p p


# ----------------- Atom Definition Section -----------------

read_data "06_aa_sample_01.data"
  orthogonal box = (0 0 0) to (149.891 144.052 182.142)
  10 by 8 by 16 MPI processor grid
  reading atoms ...
  376785 atoms
  scanning bonds ...
  3 = max bonds/atom
  scanning angles ...
  6 = max angles/atom
  scanning dihedrals ...
  9 = max dihedrals/atom
  reading bonds ...
  298710 bonds
  reading angles ...
  328635 angles
  reading dihedrals ...
  306720 dihedrals
  4 = max # of 1-2 neighbors
  6 = max # of 1-3 neighbors
  13 = max # of 1-4 neighbors
  15 = max # of special neighbors
  special bonds CPU = 43.2769 secs
  read_data CPU = 47.6746 secs

# ----------------- Settings Section -----------------

include "06_aa_sample_01.in.settings"
    pair_style  lj/cut/tip4p/long 1 2 1 1 0.1546 12.
    pair_modify mix geometric
    special_bonds lj/coul 0.0 0.0 0.5 angle yes dihedral yes
  4 = max # of 1-2 neighbors
  6 = max # of 1-3 neighbors
  13 = max # of 1-4 neighbors
  657270 = # of 1-3 neighbors before angle trim
  657270 = # of 1-3 neighbors after angle trim
  976950 = # of 1-4 neighbors before dihedral trim
  613440 = # of 1-4 neighbors after dihedral trim
  15 = max # of special neighbors
  special bonds CPU = 0.0220435 secs
    kspace_style pppm/tip4p 0.0001
    pair_coeff 1 1 0.18519 3.1589
    pair_coeff 2 2 0.0 0.0
    pair_coeff 3 3 0.06597 3.50000
    pair_coeff 4 4 0.02999 2.50000
    pair_coeff 5 5 0.16992 3.12000
    pair_coeff 6 6 0.00000 0.00000
    pair_coeff 7 7 0.06597 3.50000
    pair_coeff 8 8 0.10495 3.75000
    pair_coeff 9 9 0.16992 3.00000
    pair_coeff 10 10 0.20990 2.96000
    pair_coeff 11 11 0.00000 0.00000
    pair_coeff 12 12 0.10495 3.75000
    pair_coeff 13 13 0.20990 2.96000
    pair_coeff 14 14 0.16992 3.00000
    pair_coeff 15 15 0.01499 2.42000
    pair_coeff 16 16 0.06597 3.50000
    pair_coeff 17 17 0.06597 3.50000
    bond_coeff 1     450.0    0.9572
    bond_coeff 2 316.8485 1.5220
    bond_coeff 3 316.8485 1.5220
    bond_coeff 4 569.7277 1.2290
    bond_coeff 5 569.7277 1.2290
    bond_coeff 6 449.7850 1.3640
    bond_coeff 7 213.8978 1.3270
    bond_coeff 8 267.8720 1.5290
    bond_coeff 9 339.8376 1.0900
    bond_coeff 10 319.8471 1.4100
    bond_coeff 11 319.8471 1.4100
    bond_coeff 12 552.7358 0.9450
    angle_coeff 1     55.0     104.52
    angle_coeff 2 79.96178 120.40000
    angle_coeff 3 79.96178 120.40000
    angle_coeff 4 69.96656 108.00000
    angle_coeff 5 79.96178 121.00000
    angle_coeff 6 62.96990 111.10000
    angle_coeff 7 62.96990 111.10000
    angle_coeff 8 34.98328 109.50000
    angle_coeff 9 34.98328 109.50000
    angle_coeff 10 37.48208 110.70000
    angle_coeff 11 49.97611 109.50000
    angle_coeff 12 32.98423 107.80000
    angle_coeff 13 34.98328 109.50000
    angle_coeff 14 49.97611 109.50000
    angle_coeff 15 34.98328 109.50000
    angle_coeff 16 34.98328 113.00000
    angle_coeff 17 54.97372 108.50000
    angle_coeff 18 82.96034 123.40000
    angle_coeff 19 82.96034 116.90000
    angle_coeff 20 80.96130 111.40000
    angle_coeff 21 49.97611 109.50000
    angle_coeff 22 49.97611 109.50000
    dihedral_coeff 1 0.09995 -0.00000 0.00000 0.00000
    dihedral_coeff 2 0.07597 -0.00000 0.00000 0.00000
    dihedral_coeff 3 -1.64121 -0.12594 -0.00000 0.00000
    dihedral_coeff 4 -0.19791 -0.00000 -0.00000 0.00000
    dihedral_coeff 5 1.49928 5.49737 0.00000 0.00000
    dihedral_coeff 6 0.54974 0.54574 -0.00000 0.00000
    dihedral_coeff 7 -0.00000 0.54574 0.00000 0.00000
    dihedral_coeff 8 0.55274 -0.00000 0.00000 0.00000
    dihedral_coeff 9 0.41680 1.22741 0.00000 0.00000
    dihedral_coeff 10 -0.00000 5.12155 0.00000 0.00000
    dihedral_coeff 11 4.66677 5.12155 0.00000 0.00000
    dihedral_coeff 12 -0.00000 -0.00000 0.00000 0.00000
    dihedral_coeff 13 -0.00000 -0.00000 0.00000 0.00000
    dihedral_coeff 14 -0.29986 -0.00000 -0.00000 0.00000
    dihedral_coeff 15 -0.46777 -0.00000 -0.00000 0.00000
    dihedral_coeff 16 -0.44978 -0.00000 -0.00000 0.00000
    dihedral_coeff 17 -0.13194 -0.00000 -0.00000 0.00000
    dihedral_coeff 18 -0.00000 -0.00000 0.00000 0.00000
    dihedral_coeff 19 -0.00000 5.49737 0.00000 0.00000
    dihedral_coeff 20 -0.54974 -0.00000 0.00000 0.00000
    dihedral_coeff 21 -0.54974 -0.00000 0.00000 0.00000
    dihedral_coeff 22 -0.00000 -0.00000 0.00000 0.00000
    dihedral_coeff 23 -0.00000 -0.00000 0.00000 0.00000
    dihedral_coeff 24 -0.00000 -0.00000 0.00000 0.00000
    dihedral_coeff 25 -0.54974 -0.00000 0.00000 0.00000
    dihedral_coeff 26 -0.84760 -0.17392 -0.00000 0.00000
    dihedral_coeff 27 -0.00000 -0.00000 0.00000 0.00000
    dihedral_coeff 28 -0.01999 -0.24988 -0.00000 0.00000
    dihedral_coeff 29 -0.00000 -0.00000 0.00000 0.00000
    dihedral_coeff 30 -0.01999 -0.24988 -0.00000 0.00000
    dihedral_coeff 31 -0.01999 -0.24988 -0.00000 0.00000


# ----------------- Run Section -----------------

include "06_aa_sample_01.in.run"
# Physical observables.
thermo          1000
thermo_style custom step etotal evdwl ecoul elong ebond ke pe temp press pxx pyy pzz vol density cpu
thermo_modify flush yes
dump 1 all dcd 10000 ${run}.dcd
dump 1 all dcd 10000 06_aa_sample_01.dcd
dump_modify 1 unwrap yes

# Rapid equilibration.
minimize 0.001 0.001 200 200
WARNING: Using 'neigh_modify every 1 delay 0 check yes' setting during minimization (../min.cpp:177)
PPPM initialization ...
  extracting TIP4P info from pair style
  using 12-bit tables for long-range coulomb (../kspace.cpp:323)
  G vector (1/distance) = 0.21664
  grid = 64 60 72
  stencil order = 5
  estimated absolute RMS force accuracy = 0.040256
  estimated relative force accuracy = 0.00012123
  using double precision FFTW3
  3d grid and FFT values/proc = 2002 280
Neighbor list info ...
  update every 1 steps, delay 0 steps, check yes
  max neighbors/atom: 2000, page size: 100000
  master list distance cutoff = 15.3092
  ghost atom cutoff = 15.3092
  binsize = 7.6546, bins = 20 19 24
  1 neighbor lists, perpetual/occasional/extra = 1 0 0
  (1) pair lj/cut/tip4p/long, perpetual
      attributes: half, newton on
      pair build: half/bin/newton
      stencil: half/bin/3d/newton
      bin: standard
Per MPI rank memory allocation (min/avg/max) = 19.8 | 20.24 | 20.6 Mbytes
Step TotEng E_vdwl E_coul E_long E_bond KinEng PotEng Temp Press Pxx Pyy Pzz Volume Density CPU 
       0 3.5839184e+18 3.5839184e+18    5088213.4   -6313412.5     10313824            0 3.5839184e+18            0 2.4994086e+17 4.9677426e+17 3.6714379e+16 2.1633395e+17      3932828    1.0940709            0 
     160   -968706.96    163066.42    4900039.8     -6313519    63811.444            0   -968706.96            0    2971.4286    3194.6776    2715.9996    3003.6085      3932828    1.0940709    1.8800454 
Loop time of 1.88007 on 1280 procs for 160 steps with 376785 atoms

99.3% CPU use with 1280 MPI tasks x no OpenMP threads

Minimization stats:
  Stopping criterion = max force evaluations
  Energy initial, next-to-last, final = 
     3.58391840611e+18     -966247.197107     -968706.962814
  Force two-norm initial, final = 7.98978e+20 2129.33
  Force max component initial, final = 4.53898e+20 85.7723
  Final line search alpha, max atom move = 0.000497332 0.0426573
  Iterations, force evaluations = 160 200

MPI task timing breakdown:
Section |  min time  |  avg time  |  max time  |%varavg| %total
---------------------------------------------------------------
Pair    | 0.69538    | 1.0022     | 1.3063     |  11.2 | 53.31
Bond    | 0.0017455  | 0.015424   | 0.040298   |  12.2 |  0.82
Kspace  | 0.31255    | 0.59933    | 0.89676    |  13.2 | 31.88
Neigh   | 0.01687    | 0.017262   | 0.018164   |   0.2 |  0.92
Comm    | 0.073541   | 0.092848   | 0.11359    |   3.0 |  4.94
Output  | 0          | 0          | 0          |   0.0 |  0.00
Modify  | 0          | 0          | 0          |   0.0 |  0.00
Other   |            | 0.153      |            |       |  8.14

Nlocal:    294.363 ave 336 max 234 min
Histogram: 2 16 39 98 201 252 317 264 80 11
Nghost:    8629.78 ave 9059 max 8014 min
Histogram: 61 184 80 112 53 90 64 89 365 182
Neighs:    212174 ave 269336 max 152551 min
Histogram: 14 52 126 152 207 266 278 159 22 4

Total # of neighbors = 271583023
Ave neighs/atom = 720.79
Ave special neighs/atom = 4.95808
Neighbor list builds = 3
Dangerous builds = 0
timestep        1.0
velocity        all create ${temp} 391624 dist gaussian
velocity        all create 300 391624 dist gaussian
fix             2 all nvt temp ${temp} ${temp} 100.
fix             2 all nvt temp 300 ${temp} 100.
fix             2 all nvt temp 300 300 100.
run             10000 post no
PPPM initialization ...
  extracting TIP4P info from pair style
  using 12-bit tables for long-range coulomb (../kspace.cpp:323)
  G vector (1/distance) = 0.21664
  grid = 64 60 72
  stencil order = 5
  estimated absolute RMS force accuracy = 0.040256
  estimated relative force accuracy = 0.00012123
  using double precision FFTW3
  3d grid and FFT values/proc = 2002 280
Per MPI rank memory allocation (min/avg/max) = 18.69 | 19.13 | 19.47 Mbytes
Step TotEng E_vdwl E_coul E_long E_bond KinEng PotEng Temp Press Pxx Pyy Pzz Volume Density CPU 
     160    -631770.5    163066.42    4900039.8     -6313519    63811.444    336936.46   -968706.96          300    6887.7282    7106.0532    6621.6967    6935.4346      3932828    1.0940709            0 
    1000   -687696.84    189649.67    4835254.3   -6314295.2    135110.36    337776.27   -1025473.1    300.74775    1688.2642    1599.5816    1610.3967    1854.8144      3932828    1.0940709    6.9570044 
    2000   -700535.63    205298.97    4807759.7   -6314578.1    142665.72    336557.99   -1037093.6    299.66302    1393.9731    1395.8079    1103.4666    1682.6447      3932828    1.0940709    15.658109 
    3000   -695516.01    213170.48    4800494.6   -6314611.3    147810.64    336565.49   -1032081.5    299.66969    1669.7344    1486.6454    1421.6543    2100.9033      3932828    1.0940709    24.969546 
    4000   -696351.21     210144.8    4800365.7   -6314686.9    151575.76    337611.79     -1033963     300.6013    1302.6555     1368.077    1116.4875     1423.402      3932828    1.0940709    34.559013 
    5000   -702893.59     199838.8    4805368.1   -6314733.5    152293.03    337204.49   -1040098.1    300.23864    963.71369    914.34842     917.0904    1059.7022      3932828    1.0940709    44.044502 
    6000   -707504.91    190172.48    4809914.6   -6314768.4    153691.52    337203.25   -1044708.2    300.23754     218.5165    239.55752    221.75999    194.23201      3932828    1.0940709    53.191741 
    7000   -710520.76    182289.29    4815217.8   -6314847.9    154256.34    336350.68   -1046871.4    299.47844   -146.02319   -34.775038   -83.042581   -320.25195      3932828    1.0940709    62.110985 
    8000   -710584.11    180004.13      4814522     -6314867    155763.33    337565.63   -1048149.7     300.5602   -399.99333    -488.9102   -76.802543   -634.26724      3932828    1.0940709    70.838901 
    9000   -713329.56    184388.09    4806784.7   -6314924.8    157142.62    337860.84   -1051190.4    300.82305   -133.23994   -136.66241   -54.941782   -208.11563      3932828    1.0940709    79.502856 
   10000    -715996.3     189384.1    4798703.6   -6314888.1    159188.82    337017.41   -1053013.7    300.07208   -43.188936    55.912346    29.061283   -214.54044      3932828    1.0940709    89.086874 
   10160   -716280.69    190665.26    4797439.3   -6314929.6    159411.35     337311.8   -1053592.5    300.33419   -145.91222   -151.75247   -38.890207     -247.094      3932828    1.0940709    90.494824 
Loop time of 90.4961 on 1280 procs for 10000 steps with 376785 atoms


# 1 ns annealing.
unfix 2
fix             alkyl all shake .0001 10 0 m 1.
  13680 = # of size 2 clusters
  82035 = # of size 3 clusters
  12960 = # of size 4 clusters
  0 = # of frozen angles
  find clusters CPU = 4.88134 secs
timestep        2.0
fix             2 all npt temp ${temp} ${temp} 200. z 1 1 2000.
fix             2 all npt temp 300 ${temp} 200. z 1 1 2000.
fix             2 all npt temp 300 300 200. z 1 1 2000.
run             500000
PPPM initialization ...
  extracting TIP4P info from pair style
  using 12-bit tables for long-range coulomb (../kspace.cpp:323)
  G vector (1/distance) = 0.21664
  grid = 64 60 72
  stencil order = 5
  estimated absolute RMS force accuracy = 0.040256
  estimated relative force accuracy = 0.00012123
  using double precision FFTW3
  3d grid and FFT values/proc = 2002 280
Per MPI rank memory allocation (min/avg/max) = 19.72 | 20.3 | 20.74 Mbytes
Step TotEng E_vdwl E_coul E_long E_bond KinEng PotEng Temp Press Pxx Pyy Pzz Volume Density CPU 
   10160   -837240.14    190665.26    4797439.3   -6314929.6    38451.901     337311.8   -1174551.9      371.539    1179.1405    1204.3195    1188.0581    1145.0441      3932828    1.0940709            0 
   11000    -775233.4     139192.9    4975490.9   -6314985.6    38679.374    272581.07   -1047814.5    300.24001    166.55771    11.328564    400.27298    88.071592    3966027.2    1.0849126    9.5929022 
   12000   -777283.17    133832.77    4980017.9   -6314927.8    38550.386    271997.23   -1049280.4    299.59692    9.0741414    86.125875     79.91118   -138.81463    3957684.3    1.0871996    20.840902 
   13000   -779033.49    132484.72    4980316.3   -6314946.9    38334.721     271896.5     -1050930    299.48598    75.933439    248.59924   -48.766653    27.967725    3950687.4    1.0891251    32.058962 
   14000   -778599.98    132330.95    4981926.4   -6315008.2    38019.534    272545.24   -1051145.2    300.20054    3.3526119   -167.63129    77.258292    100.43084    3953685.4    1.0882992    43.253807 
   15000   -778323.76     130477.4    4984332.3   -6314963.7    37955.581    272764.11   -1051087.9    300.44162    -97.44045    18.383582    -225.8665   -84.838427    3954760.5    1.0880034    54.474911 
   16000   -780906.76    128066.29      4985501   -6314980.9    37303.995    272412.29   -1053319.1    300.05411   -82.404105   -121.32779    -130.1431    4.2585716    3949510.1    1.0894497    65.648749 
   17000   -779548.64    128452.55    4986774.8   -6315006.6    37093.162    273069.47   -1052618.1    300.77796    42.751727   -51.879786    132.54537    47.589595    3947354.2    1.0900448    76.822268 
   18000   -780214.11    128474.97    4987699.7   -6315044.6    36767.115    271781.25   -1051995.4    299.35903   -2.3229592   -9.3280113   -25.192281    27.551415      3951899    1.0887912     87.98391 
   19000   -778436.24    126967.31    4990200.1   -6314994.2    37110.827     272961.6   -1051397.8    300.65915   -117.17897   -135.29994   -87.188331   -129.04864    3951340.6    1.0889451    99.103927 
   20000   -779093.09    125935.06      4992391   -6314979.3    36462.936    272307.05   -1051400.1    299.93818   -62.243365   -15.224338   -128.08047   -43.425282    3953461.6    1.0883609    110.70427 
   21000   -778624.31    125914.69    4992594.2   -6314985.4    36480.738    272329.92   -1050954.2    299.96338     58.75826   -27.310367   -29.964003    233.54915    3947684.9    1.0899535    121.84702 
   22000   -779447.23    125233.89    4994124.9   -6315009.8    36195.603    272014.28   -1051461.5    299.61571    17.646747    35.183751    -29.02138    46.777869    3949344.8    1.0894954      132.991 
   23000   -777144.83    123294.64    4997237.9     -6315003    36295.901    272379.34   -1049524.2     300.0178   -23.501006   -52.725736   -44.567283    26.790002    3945692.6    1.0905038    144.08981 
   24000   -778109.24    123087.21    4997774.9   -6314982.8    35773.651    272451.66   -1050560.9    300.09747    35.356805    1.3819176    19.882531    84.805966    3944739.3    1.0907674    155.12731 
   25000   -776860.99    122308.34    5000060.5   -6314979.1    35958.959     272182.9   -1049043.9    299.80143   -92.797614   -182.57289   -111.56974    15.749796    3944583.8    1.0908104    166.25771 
   26000   -776469.12    120461.22    5003344.6   -6314992.8    35824.539    271551.55   -1048020.7    299.10602   -57.658578   -53.376612   -51.554396   -68.044725    3944653.1    1.0907912    177.33252 
   27000   -776028.23    119367.46    5005316.8   -6314971.3     35305.53    272159.26   -1048187.5     299.7754   -92.938896   -113.12485   -144.62958   -21.062257    3943910.2    1.0909967    188.40051 
   28000   -775614.76    118234.23    5007069.9   -6314988.4    35197.812    272171.02   -1047785.8    299.78835   -66.740456   -85.070594   -118.77901     3.628238    3939646.7    1.0921773    199.44841 
   29000   -774572.49    118200.65    5008252.6     -6315000    35445.326    272136.66   -1046709.2    299.75051   -60.497177   -73.172712   -4.1902716   -104.12855    3940613.7    1.0919093    210.48294 
   30000   -775160.29    118675.27    5008232.9   -6314976.1    35182.045     271656.9   -1046817.2    299.22206   -46.165407   -71.298265    -113.8161    46.618147    3941960.6    1.0915362    222.11789 
   31000   -774043.31    115650.31    5012423.3   -6315020.2     35102.86    271961.79   -1046005.1    299.55788   -157.13894   -171.46815   -180.55875   -119.38993    3938129.1    1.0925982    233.12032 
   32000   -773605.18    116281.66    5012443.2   -6314996.5    34844.758    272335.75   -1045940.9     299.9698   -128.87133   -87.155279   -244.12994   -55.328788    3936216.9     1.093129    244.16538 
   33000   -771738.94    115120.86    5014809.1     -6315026    34649.832    272723.06     -1044462    300.39641   -45.933529    -135.7229   -43.207876    41.130194    3935214.5    1.0934074    255.17495 
   34000    -771659.3    114090.19    5017382.1   -6315028.3    34258.409    272960.91   -1044620.2    300.65839   -54.307733   -70.116953   -26.945076    -65.86117    3933890.1    1.0937756     266.1506 
   35000    -771084.4    114267.55      5017702   -6315023.9    34425.504    272553.05   -1043637.4    300.20914    18.819635   -84.432235    21.318116    119.57303    3932186.9    1.0942493    277.13101 
   36000    -771980.9    112386.54    5019680.1   -6315017.5    34365.136    272099.91   -1044080.8    299.71003   -127.47875   -142.31965   -129.71366   -110.40294    3932340.9    1.0942065    288.17038 
   37000    -769963.6    111747.17      5021939   -6314990.6    34350.431    272310.24   -1042273.8     299.9417    21.297548   -49.998671   -81.840913    195.73223    3927512.6    1.0955516    299.28245 
   38000   -769386.72    111141.83    5023597.9   -6314975.4    34034.325    272647.84   -1042034.6    300.31356    3.9455208   -109.94191   0.88541869    120.89306    3929629.2    1.0949615    310.33003 
   39000   -767961.12    110150.03    5025393.3   -6314960.4    33929.588    273130.19   -1041091.3    300.84484   -67.224794  -0.23833251   -68.596103   -132.83995    3927869.9     1.095452    321.30967 
   40000    -768858.8    110086.23    5026047.4   -6315017.1    33882.154    271910.59   -1040769.4     299.5015    50.780034    22.488993     32.57686     97.27425    3920083.5    1.0976279    332.93249 
   41000   -768120.03    108554.35    5028493.2   -6314952.1    33552.766    272368.88   -1040488.9    300.00629   -65.499427    -198.0859   -57.263116    58.850738    3924160.7    1.0964874    344.03564 
   42000   -767564.67    107821.62    5030230.3   -6314984.8     33595.38    272250.93   -1039815.6    299.87636   -133.25574   -311.27919    -110.7156    22.227566    3924409.5    1.0964179    355.01406 
   43000   -767461.68    107973.36    5031125.9   -6314957.4    33754.451    271700.84   -1039162.5    299.27046   -167.23868    -238.6685    -199.5154   -63.532127    3920685.9    1.0974592    365.97984 
   44000   -766022.41     107516.8    5032604.5   -6314954.5    33433.459    272068.35   -1038090.8    299.67526   -52.556958   -53.831006   -228.46249    124.62263    3918636.5    1.0980332    377.18416 
   45000   -766875.64    106289.46    5034193.9   -6314993.2    33206.661    271914.93   -1038790.6    299.50627   -76.761467   -30.645671   -192.97045   -6.6682841    3919078.9    1.0979092    388.25748 
   46000   -765874.52    105744.15    5035150.3   -6314909.5    33362.281    271767.26   -1037641.8    299.34362   -96.061373   -120.38122   -207.85113     40.04823    3921314.6    1.0972832    399.28974 
   47000   -764830.73    105896.88    5036616.7   -6314946.3    32862.052    272474.99   -1037305.7    300.12317    59.572406     122.4698   -41.242514    97.489929    3916384.3    1.0986646    410.47213 
   48000   -765520.55    104997.87    5037006.1   -6314927.4    33089.988    272221.28   -1037741.8    299.84371   0.63583533   -30.313551   -16.779992    49.001049    3916552.9    1.0986173    421.64433 
   49000   -764068.41    103712.65    5039210.5   -6314947.2    33267.175    272430.69   -1036499.1    300.07436   -106.92674   -129.99274   -116.28451   -74.502972    3917136.4    1.0984537    432.72314 
   50000   -764352.73    102608.21    5041127.4   -6314922.8    33460.475    271462.77   -1035815.5    299.00824   -245.88547   -293.57857   -376.03392   -68.043927    3916344.2    1.0986759    444.27271 
   51000   -762604.96    102358.59      5042191   -6315007.7    32834.048    272801.09   -1035406.1    300.48236     -121.737   -111.31055   -193.53804   -60.362411    3913468.5    1.0994832    455.32442 
   52000   -763999.65    102970.73    5041586.4   -6314943.6      33030.2    271560.22   -1035559.9    299.11557   -168.94854     -248.816   -216.78988   -41.239737    3915490.3    1.0989155    466.34054 
   53000   -762087.43    101055.68    5044825.3   -6314919.1    32821.834    272007.67   -1034095.1    299.60842   -185.14657   -161.72874   -263.86907   -129.84191    3911025.4      1.10017    477.32293 
   54000   -760714.62    101926.95    5044916.9   -6314943.4    32718.143    272614.13   -1033328.7    300.27642   -35.767407   -136.08116   -18.489345    47.268279    3909365.1    1.1006373     488.3133 
   55000   -762506.05    100796.25      5046401   -6314971.7    32707.185    271386.28   -1033892.3    298.92398   -140.72407   -189.79826   -114.10237   -118.27157    3909022.2    1.1007338    499.44258 
   56000   -761165.66    100447.25    5046619.4   -6314931.8    32328.115     272805.6   -1033971.3    300.48732     26.95273    41.889501   -70.496869    109.46556    3906147.9    1.1015438    510.48611 
   57000   -760705.86    99597.912    5048953.8   -6314957.2    32768.234    271756.52   -1032462.4    299.33179   -98.922472   -139.23131   -160.43629    2.9001887    3903474.8    1.1022981    521.63191 
   58000   -760768.65    100602.09    5048263.3   -6314993.6    32538.927    271911.07   -1032679.7    299.50203   -37.423112   -133.01178    33.174429   -12.431987    3907765.1    1.1010879      532.722 
   59000   -759366.83    99124.392    5050551.9   -6314959.5    32258.437    272678.71   -1032045.5    300.34756   -11.489174    22.551624    -72.29233    15.273185    3907002.8    1.1013027    543.74192 
   60000   -759795.14    98770.277    5051239.9   -6314917.6    32150.261    271740.95   -1031536.1    299.31464   -96.632332   -146.60509   -199.16016    55.868259    3908555.8    1.1008651    555.27506 
   61000   -758988.18    98226.433    5051843.6   -6314959.5    32207.299    272862.17   -1031850.4    300.54964    -103.4972   -95.328146   -83.419973   -131.74348    3909185.4    1.1006878    566.30852 
   62000   -758766.02    98590.154    5052397.7   -6314944.5    31892.732    272709.65   -1031475.7    300.38164   -18.462526    1.0466328   -121.31174    64.877525    3912128.6    1.0998598    577.32253 
   63000   -759857.68    97402.771    5053990.2   -6314920.8    31884.694    271562.43   -1031420.1      299.118   -99.995357   -170.07676   -63.546628   -66.362683      3908513    1.1008772    588.49214 
   64000   -757939.86    96716.439      5055673     -6314930    32064.131    272286.81   -1030226.7    299.91589   -142.22182   -92.277904   -68.874018   -265.51352    3903033.3    1.1024228    599.54088 
   65000    -757326.5    96172.888    5056740.6   -6314902.9    31796.107    272219.81   -1029546.3    299.84209   -73.183814   -175.99021   -20.488688   -23.072546    3907083.7    1.1012799     610.6182 
   66000   -758985.74    95716.217    5056036.7   -6314877.8    31558.051    272277.71   -1031263.5    299.90587   -72.253528   -103.85085   -56.930743   -55.978986    3901454.5    1.1028689    621.65382 
   67000   -756997.23    95805.808    5057005.7   -6314912.7    31811.828    273029.05   -1030026.3    300.73345   -168.89688   -156.08104   -291.85586   -58.753732    3904365.6    1.1020466     632.6491 
   68000   -757329.26    95373.516    5058094.3   -6314939.5    31758.234    272602.88   -1029932.1    300.26403   -132.05328   -90.333913   -246.12602   -59.699908    3900878.5    1.1030317    643.74154 
   69000   -756235.58    95433.222    5059272.9   -6314926.8    31587.828     272582.5   -1028818.1    300.24158    37.070868   -20.636887    27.009073    104.84042    3897776.4    1.1039096    654.77406 
   70000   -757335.63    95109.049      5059466   -6314912.8    31293.487    272300.94   -1029636.6    299.93145    23.039212   -64.940198   -149.20501    283.26284    3899737.3    1.1033545    666.40558 
   71000   -755786.06     94231.16    5061277.4     -6314958    31504.284    272512.18   -1028298.2    300.16413   -70.556221   -49.248841   -179.13383    16.714005    3899550.6    1.1034074    677.47801 
   72000   -756623.69    94543.352    5060562.6   -6314924.4    31716.536     272283.1   -1028906.8     299.9118   -160.87443   -259.40051   -253.71688    30.494101    3899205.1    1.1035051    688.57358 
   73000   -756176.43    94167.819    5060679.1   -6314904.9    31515.228    273037.77   -1029214.2    300.74305   -131.13581   -87.337602   -144.64949   -161.42033    3903327.7    1.1023396    699.62636 
   74000   -755898.77    94773.108    5061038.3   -6314884.3     31162.81    272693.28     -1028592    300.36361   -41.665859   -88.760311   -19.147288   -17.089978    3899462.7    1.1034322    710.69173 
   75000   -757394.51    95125.142    5060819.8   -6314918.8     31141.51    271557.88   -1028952.4    299.11299   -36.310224   -31.670222   -143.80684    66.546393    3902015.9    1.1027102    721.66383 
   76000   -755534.51    93789.014    5062450.6   -6314941.9     30892.23    272262.69   -1027797.2    299.88932   -9.9435374   -36.466324   -80.407005    87.042717    3900410.9     1.103164     732.8627 
   77000   -753610.76    93435.539    5064305.9   -6314912.9      31333.5    272887.63   -1026498.4    300.57768    -21.38886   -51.451843    58.578349   -71.293087    3901257.3    1.1029246    744.01363 
   78000   -755163.78    92479.204      5065021   -6314920.3    31000.736    272468.48   -1027632.3    300.11599   -125.56576   -122.21768   -225.79015   -28.689438    3900885.9    1.1030296    755.08565 
   79000   -754404.12    93140.632    5064336.7   -6314942.1    31218.556    272727.24   -1027131.4    300.40101   -84.642779   -169.30441   -156.57977    71.955841    3900458.3    1.1031506     766.1373 
   80000   -755154.79    91722.146    5065882.5   -6314929.8    31094.832    272641.57   -1027796.4    300.30665   -149.10976   -329.39825   -148.82118    30.890157    3901395.5    1.1028856    777.60132 
   81000   -753561.24    92130.316    5066956.9   -6314921.7     31202.65    272238.87   -1025800.1    299.86308   -60.034816   -97.085305   -215.64427    132.62512    3898419.2    1.1037276    788.71203 
   82000    -755127.4    91836.481    5066830.7   -6314902.4    30686.461    272179.61     -1027307    299.79781   -6.6490697    -40.13686   -127.96019    148.14984    3894823.2    1.1047466    799.76079 
   83000   -754326.39    90948.717    5068292.8   -6314959.5     31123.02    271549.37   -1025875.8    299.10362   -240.08597   -346.12175   -252.74028   -121.39589    3900368.5     1.103176    810.76852 
   84000    -753257.6    91286.942    5068647.9     -6314892    30959.388    272342.98   -1025600.6    299.97775   -75.045465    -50.75068   -173.85247  -0.53324789    3899110.3     1.103532    821.82552 
   85000   -753171.96    91573.549    5068124.3   -6314898.2    31030.601    272844.58   -1026016.5    300.53026     -110.185   -123.30241   -166.27992    -40.97266    3900249.7    1.1032096    832.93089 
   86000   -753438.61    90836.597      5069312   -6314934.4    30822.429    271996.81   -1025435.4    299.59646    -9.557389   -6.6821473   0.46055259   -22.450572    3895368.6     1.104592     844.0543 
   87000      -753993    90630.794    5070020.1   -6314920.3    30686.995    271811.65   -1025804.6    299.39251   -83.353931   -153.26379   -55.186846   -41.611162    3900543.4    1.1031265    855.13491 
   88000   -753815.02    90531.953    5069411.3   -6314912.2    30937.878    271783.37   -1025598.4    299.36136   -137.48982   -159.12592   -270.61391    17.270351    3896961.5    1.1041404    866.24435 
   89000   -752741.63     90925.55    5069739.4   -6314889.3    30843.565    272513.83   -1025255.5    300.16595   -12.691339   -130.24005   -79.207642    171.37367    3897943.6    1.1038623    877.40608 
   90000   -752510.29    90247.478    5070937.8   -6314909.7    30608.182    272635.45   -1025145.7     300.2999   -80.356959   -192.06773   -68.665243      19.6621    3899403.4     1.103449     889.1776 
   91000   -753032.41    90022.326    5070515.6   -6314889.3    30688.555    272653.61     -1025686     300.3199   -39.202898   -57.846631   -119.02597    59.263901    3895752.8     1.104483    900.21463 
   92000   -751817.71    90220.433    5071684.1   -6314882.6    30642.209    272403.57   -1024221.3    300.04449   -137.08158   -53.371531   -354.67836   -3.1948625    3896153.8    1.1043693    911.31222 
   93000   -751224.06    89105.232    5072673.7   -6314920.7    30496.525    273454.08   -1024678.1    301.20161    15.324811    -23.81883   -63.441917    133.23518    3893526.8    1.1051145    922.46336 
   94000   -753056.28    89284.088    5072462.7   -6314920.7    30733.899    271860.81   -1024917.1    299.44666   -148.82001   -211.42732   -213.71846   -21.314267      3898030    1.1038378    933.56734 
   95000   -751484.21    88686.337    5073639.3   -6314885.9    30559.452    272541.16   -1024025.4    300.19604   -118.21115   -115.62618   -192.05549   -46.951775    3897327.8    1.1040367    944.64118 
   96000   -751570.21    88909.374    5073632.1     -6314902    30521.895    272558.77     -1024129    300.21545   -146.15004   -128.78184   -215.63121   -94.037071    3896383.3    1.1043043    955.74897 
   97000   -751703.23    88891.962    5073848.8   -6314905.7    30609.307    272015.16   -1023718.4    299.61668   -103.77333   -134.09727   -172.50045   -4.7222709    3897489.7    1.1039908    966.86606 
   98000   -751187.84    88988.187    5074043.5   -6314951.9    30392.832     272286.7   -1023474.5    299.91577     4.633391   -55.934436   -176.56669     246.4013    3900004.7    1.1032789    978.00174 
   99000   -750274.15    89158.935    5074656.4   -6314904.5    30311.916    272569.08   -1022843.2     300.2268    24.797692    32.595473   -48.135422    89.933026    3893298.7    1.1051792    988.96882 
  100000   -751099.03    87894.719    5075694.1   -6314894.2    30275.062    271913.11   -1023012.1    299.50427   -77.501244   -153.27719   -54.630876   -24.595668    3894641.5    1.1047982    1000.6301 
  101000   -750401.47    88379.455    5075761.1   -6314863.1    30372.988    272668.09   -1023069.6    300.33585   -72.487498   -79.408964   -185.03777    46.984243    3899008.3    1.1035608    1011.7468 
  102000   -751328.35    88480.293    5075251.1   -6314902.8    30359.784    272204.37   -1023532.7    299.82509   -128.64764   -147.81953   -188.30812    -49.81526    3895462.5    1.1045653    1022.7151 
  103000   -750491.01    87392.699    5076786.7   -6314899.5    30497.188    272637.34   -1023128.3    300.30199   -135.89754   -77.682614   -149.65928   -180.35072    3896124.4    1.1043777    1033.6869 
  104000    -751242.7     87953.25    5075596.9   -6314895.8    30268.742    271962.11   -1023204.8    299.55825   -97.390382   -66.409144   -323.62477    97.862765    3893430.8    1.1051417    1044.8876 
  105000   -749500.92    87943.643      5076095   -6314878.7    30170.925     272932.9   -1022433.8    300.62754   -21.995078   -158.64341   -94.113958    186.77213    3896862.4    1.1041685    1055.9166 
  106000   -750652.63      87530.1    5077186.6     -6314915    30081.634    272413.37     -1023066    300.05529   -29.009761    61.770129   -101.05501   -47.744402    3894104.2    1.1049506    1066.9739 
  107000   -751548.68    87727.152    5075779.3     -6314881    30120.996    272518.23   -1024066.9    300.17079   -186.54273   -93.865328   -280.98223   -184.78064    3895780.3    1.1044752    1078.1298 
  108000   -750570.34    86281.926    5077869.4     -6314874    30206.816    272295.71   -1022866.1     299.9257   -277.62428   -199.53451   -330.88463   -302.45371    3896868.4    1.1041668    1089.3168 
  109000   -749942.77    88146.997      5077078   -6314911.4    30176.015    272259.97   -1022202.7    299.88632    69.960957    50.541414    36.347166    122.99429    3894142.9    1.1049396    1100.4516 
  110000   -750954.32    87337.309    5076562.3     -6314926    30018.482     272679.1   -1023633.4    300.34799   -92.804607   -118.97555   -117.77571   -41.662556    3895496.7    1.1045556    1112.0045 
  111000   -749879.31    87185.118    5077749.6   -6314884.9     30049.64    272924.27   -1022803.6    300.61804   -150.51517   -200.61663   -313.84399    62.915106    3899831.9    1.1033278    1123.0636 
  112000   -749840.09    87227.106      5078301   -6314875.9    30338.198    272395.27   -1022235.4    300.03535   -96.187197   -134.01362   -253.00049     98.45252    3895618.6    1.1045211    1134.0663 
  113000   -750900.34    86965.508    5077799.6   -6314891.1    29895.066    272368.36   -1023268.7    300.00571    -44.39621   -102.60637   -90.832366    60.250105    3895801.5    1.1044692    1145.0849 
  114000   -749513.33    87111.767    5079158.7   -6314900.5    30055.653    272009.94   -1021523.3    299.61092   -55.355631   -207.67494   -123.32271    164.93076    3901009.2    1.1029948    1156.0772 
  115000   -751385.19    87128.864      5078008   -6314938.6      29975.9    272123.58   -1023508.8    299.73609   -87.714492   -98.946348   -205.81624    41.619114    3895705.7    1.1044964    1167.1643 
  116000   -749998.33    85937.369    5080203.3   -6314869.9     29959.59     272046.8   -1022045.1    299.65153   -146.56002   -226.84973   -236.11511    23.284778    3896810.5    1.1041832    1178.1874 
  117000   -748953.59     85924.44    5080274.7   -6314887.3    29999.717    272900.37     -1021854    300.59171   -73.030718   -87.154393    -100.6128   -31.324956    3898913.4    1.1035877     1189.308 
  118000   -750714.64    86074.885    5079832.2     -6314875    30047.829    272170.93   -1022885.6    299.78825   -176.24703   -305.24162    -238.7668    15.267312    3894630.3    1.1048014    1200.3781 
  119000   -749966.74    85910.706    5079819.2   -6314875.6    30232.563    272241.24     -1022208    299.86569   -275.21761    -416.6181   -273.32149   -135.71323    3900615.3    1.1031062    1211.3732 
  120000   -749744.68    86537.352      5079312   -6314883.1    30160.451    272297.24   -1022041.9    299.92738   -105.09372   -153.92806   -172.31247    10.959357    3893386.2    1.1051544    1223.0554 
  121000   -749082.85    86082.334    5080771.6   -6314960.8    29922.454    272725.35   -1021808.2    300.39893   -142.28569   -112.18416   -266.59661   -48.076296    3898194.2    1.1037913    1234.0663 
  122000   -747907.08    86662.424    5081278.4   -6314901.7    29999.628    272407.68   -1020314.8    300.04902    35.247338   -18.261872   -16.139835    140.14372    3893151.6     1.105221    1245.1298 
  123000   -749401.12     87131.51    5080080.1   -6314945.5    29988.978     271890.4   -1021291.5    299.47925   -19.062861    14.524838   -158.59918    86.885755    3892163.4    1.1055016    1256.2244 
  124000   -749931.86    85469.557      5081105   -6314936.4    29812.245    272267.09     -1022199    299.89417   -163.77934   -209.76336   -304.88314    23.308483    3890535.2    1.1059642    1267.2877 
  125000   -748393.12    85767.963    5081072.7   -6314830.9    29857.143     273225.3   -1021618.4    300.94961   -117.31075   -132.94251    -136.7881   -82.201631    3894389.6    1.1048696    1278.2953 
  126000   -749032.96     86657.87    5079991.5   -6314853.1    29902.126     272556.9   -1021589.9    300.21339    -50.73786   -100.61199   -140.46992    88.868333    3895556.5    1.1045387    1289.4023 
  127000   -747717.36    85324.904    5082604.8   -6314875.2    30034.618    272846.11   -1020563.5    300.53194   -203.60087   -192.47527   -211.32528   -207.00207    3900195.3     1.103225    1300.5062 
  128000   -750169.91    85458.139    5080969.9   -6314874.5    29858.605    272245.39   -1022415.3    299.87026   -94.401253   -131.27826   -201.50512    49.579611    3891853.5    1.1055896    1311.5138 
  129000   -748815.51     86010.11    5081317.4   -6314901.8    30141.057    272762.38   -1021577.9    300.43971   -149.48943   -187.94641   -254.76837   -5.7535215    3893405.9    1.1051488    1322.6344 
  130000   -749003.93    85666.639    5081426.4   -6314919.2    29734.295    273024.09     -1022028    300.72798   -138.09655   -205.94364   -227.19574    18.849739    3892114.7    1.1055154    1334.2356 
  131000   -748128.34    84601.013    5082895.6   -6314850.1     29813.59    272554.25   -1020682.6    300.21047   -89.032678   -73.931234   -121.28314   -71.883665    3891192.4    1.1057774    1345.3191 
  132000   -748585.94     85228.82    5082372.4   -6314890.3    30067.904    272202.02     -1020788    299.82249   -127.14835   -114.58033    -245.1086    -21.75613    3896084.2    1.1043891    1356.4429 
  133000   -748631.57    85973.462      5081331     -6314887    29744.991    272588.41     -1021220    300.24809   -51.918493   -62.076045   -105.51341    11.833975    3892762.3    1.1053315     1367.529 
  134000   -749044.18    85010.805    5082456.7   -6314895.8    29837.432    272332.49   -1021376.7    299.96621   -127.37892   -103.43552     -215.713   -62.988248    3893966.6    1.1049897    1378.5712 
  135000   -747982.06     84880.58    5082928.9   -6314858.2    29847.056    272610.09   -1020592.2    300.27198   -142.50204   -241.48411   -78.671127    -107.3509      3889168     1.106353    1389.6651 
  136000   -748602.62    85255.647    5082557.5   -6314921.7    29925.987    272379.38     -1020982    300.01785   -157.97389   -233.11053   -277.11794    36.306792    3892247.6    1.1054777    1400.7087 
  137000   -748292.01    85295.843      5082892   -6314892.5    29817.202    272329.88   -1020621.9    299.96333   -30.973081   -23.656749   -14.651569   -54.610925      3892888    1.1052958       1411.8 
  138000   -749177.49    85514.169    5081835.3   -6314911.6    29705.993    272148.63   -1021326.1    299.76369   -106.81898   -227.24291   -169.27734     76.06332    3897598.3    1.1039601     1422.795 
  139000   -747589.36    84825.457    5083882.7   -6314905.9    29766.874    272743.13   -1020332.5    300.41851   -36.934379    5.9642511   -102.03166   -14.735726    3892883.8     1.105297    1433.8069 
  140000    -748769.4    85061.304    5082936.7   -6314968.4    29481.532    272153.85   -1020923.2    299.76943   -14.687655   -26.121589   -1.5959519   -16.345424      3892801    1.1053205     1445.195 
  141000    -748484.6    85111.207    5083036.3   -6314904.6    29746.324    272304.27   -1020788.9    299.93512   -79.373421   -240.70866    -70.17694    72.765332    3890300.8    1.1060309    1456.2356 
  142000   -748849.25    84033.912    5084016.3   -6314924.4    29699.753    272219.45   -1021068.7    299.84169   -52.296427   -104.99912   -130.50487    78.614712    3895738.6    1.1044871     1467.264 
  143000   -749532.38    83865.321    5083939.4   -6314905.5    29614.235    271862.57   -1021394.9     299.4486   -122.16197   -214.30255   -126.72047   -25.462899    3894342.3    1.1048831    1478.2377 
  144000   -747179.81    83289.817    5085960.7   -6314889.6    29821.006    272532.48   -1019712.3    300.18649   -119.47267   -183.74615   -201.14831    26.476441    3893358.8    1.1051622    1489.2342 
  145000   -748118.25    84986.516    5083837.9     -6314871    29629.374    271809.65   -1019927.9    299.39031   -53.704114    -59.16579    35.214051    -137.1606    3895413.6    1.1045792    1500.2562 
  146000   -748975.99    83999.318      5084229   -6314913.4    29638.677    272354.73   -1021330.7     299.9907   -171.93898    -224.5569   -229.33253   -61.927502      3891219    1.1057699    1511.2144 
  147000   -746967.93    84097.423    5085423.8     -6314855    29481.519    272249.82   -1019217.7    299.87514    -72.50128   -149.36889    -133.6007    65.465743    3895322.8     1.104605    1522.1724 
  148000   -747999.15    84646.433      5084205     -6314903    29756.704    272451.24   -1020450.4    300.09701   -21.429441   -17.038951   -111.58449    64.335114    3894526.9    1.1048307    1533.2599 
  149000   -749670.04    84410.061    5083267.3   -6314917.5    29578.667    272151.66   -1021821.7    299.76703    -123.2672     -148.586   -318.34245     97.12686    3892022.9    1.1055415    1544.3219 
  150000    -747431.6    84263.339    5084662.2   -6314898.8    29598.079    272523.98   -1019955.6    300.17712   -118.76608   -120.49618   -150.77541   -85.026654    3896751.2    1.1042001    1555.7481 
  151000   -749006.88    84122.989    5083847.1   -6314921.4    29714.523    272207.56   -1021214.4    299.82859   -109.51787    -138.5307   -184.37383     -5.64908    3896516.5    1.1042665    1566.8369 
  152000   -747508.38    84801.627    5084124.2   -6314922.4    29818.231    272206.11   -1019714.5      299.827   -47.807814   -115.06593   -28.231046  -0.12646742    3891891.8    1.1055787    1577.8577 
  153000   -749955.98    84208.028    5083947.2   -6314862.9    29392.046    271367.71   -1021323.7    298.90353   -120.12661   -143.05179   -179.39412   -37.933917    3889983.5    1.1061211    1588.8011 
  154000   -748904.19    84838.734    5083054.3   -6314939.5    29636.939    272310.39   -1021214.6    299.94187    -108.9999   -189.50462   -69.996049   -67.499018    3887545.2    1.1068149    1599.8355 
  155000   -747229.97    83745.606    5085186.4   -6314921.8    29782.977    273251.04     -1020481    300.97796   -188.46559   -213.24926   -300.36554   -51.781977    3894237.2    1.1049129    1610.9522 
  156000   -748520.42    83228.285    5084932.8   -6314899.7    29681.545    272339.37   -1020859.8    299.97379   -145.82165   -124.09604   -321.45929    8.0903615    3891865.1    1.1055863     1621.939 
  157000    -749095.2    83676.054    5084852.5   -6314918.8    29680.837    271980.62   -1021075.8    299.57863   -201.22025   -261.72656   -290.39917   -51.534998    3889581.3    1.1062355    1632.9765 
  158000   -748211.84    84148.237    5084833.4   -6314895.3    29653.544    272309.86   -1020521.7    299.94128   -62.917293   -70.812024   -129.45546    11.515609    3891023.7    1.1058254    1643.9699 
  159000   -747705.38    83867.752    5084946.2   -6314928.2    29590.911     273038.6     -1020744    300.74396   -166.84508   -225.00488   -173.00433   -102.52603    3893161.3    1.1052182    1654.9467 
  160000   -746291.11    83760.179    5086290.6   -6314882.5    29877.522    272708.05   -1018999.2    300.37987   -60.065749   -111.61299   -162.86573    94.281475    3891917.6    1.1055714    1666.3989 
  161000   -747748.69    84451.428    5084481.9   -6314914.6    29492.994    272577.75   -1020326.4    300.23635   -59.258644   -97.329305   -230.56885    150.12222      3890320    1.1060254     1677.447 
  162000   -748689.62    83372.989    5084723.5     -6314877    29499.568    272612.02   -1021301.6     300.2741   -167.64585   -266.28566   -294.47578    57.823882    3891768.3    1.1056138    1688.4377 
  163000    -747423.5    84995.681    5084670.2   -6314888.4     29913.34    272336.43   -1019759.9    299.97054    -153.7782   -277.47738   -163.53119   -20.326041    3890599.2     1.105946    1699.4908 
  164000   -747176.84    83377.294    5086526.8     -6314920    29619.902    272374.62   -1019551.5    300.01261   -19.061481   -109.09317   -201.83535    253.74408    3887959.9    1.1066968    1710.5815 
  165000   -748604.31    84607.561    5084260.9   -6314946.2    29624.734     272344.4   -1020948.7    299.97932    -58.10431   -165.91441   -113.39624    104.99773    3892421.7    1.1054282    1721.6755 
  166000   -746822.67    84192.541    5085852.9   -6314922.8    29563.461    272546.95   -1019369.6    300.20243   -43.506499   -144.47116   -72.095868    86.047532    3893534.9    1.1051122    1732.7472 
  167000   -747675.06     83102.69    5086771.8     -6314925    29439.325    272285.34   -1019960.4    299.91427   -167.90607    -258.2876   -216.51065   -28.919979    3895124.6    1.1046612    1743.8334 
  168000   -747818.62    83155.141    5086504.4   -6314925.3    29259.544    272630.31   -1020448.9    300.29424   -77.500823   -214.12467   -22.457023    4.0792235      3893070    1.1052441    1754.8697 
  169000   -747716.12     83463.23    5086779.3   -6314896.2    29557.151    271854.74   -1019570.9    299.43998   -139.59889   -120.47018   -276.75687   -21.569607    3891758.3    1.1056167    1765.8741 
  170000   -748657.42     83475.85    5085550.4   -6314929.4    29603.799    272041.11   -1020698.5    299.64526   -140.30151   -189.62284   -88.086709   -143.19498    3889081.3    1.1063777    1777.3675 
  171000   -747396.25    83157.482    5086303.7     -6314908    29628.201    272657.77     -1020054    300.32449   -133.86702   -190.44444    -165.5676   -45.589034    3888007.4    1.1066833    1788.4748 
  172000   -747593.73    83635.077    5085932.4   -6314899.5    29483.856    272694.21   -1020287.9    300.36463   -131.82226   -170.77271   -259.44457    34.750502    3889992.3    1.1061186    1799.6268 
  173000   -748050.07    84109.774    5085330.6   -6314919.2    29447.541    272070.69   -1020120.8    299.67783   -79.293065   -122.10177   -181.21142    65.433994    3893179.2    1.1052131     1810.619 
  174000   -748048.33    82813.599    5086586.7   -6314931.8    29402.317    272787.04   -1020835.4    300.46687   -80.963268    -146.5235   -122.89326     26.52695    3891080.7    1.1058092    1821.7387 
  175000    -747399.2    83364.792    5086378.9   -6314932.2    29347.153    272839.12   -1020238.3    300.52424   -71.793726   -219.73601   -81.223881     85.57871    3889865.3    1.1061547    1832.9418 
  176000   -748331.83    83221.231    5086783.8   -6314905.9    29313.262    271967.31   -1020299.1    299.56397   -128.24001   -81.377153   -264.85577   -38.487104    3891449.7    1.1057043    1844.0093 
  177000    -747349.9    83670.923    5086424.8   -6314912.5    29158.668    272906.96   -1020256.9    300.59896   -45.957329    -149.8474   -6.1491752    18.124586    3889317.1    1.1063106    1855.0427 
  178000    -748639.4    83244.267    5087001.6   -6314882.8    29171.465    271481.91   -1020121.3    299.02931   -24.221832    21.086908   -47.146974   -46.605429    3892478.3    1.1054121    1866.0878 
  179000    -746988.7    84874.273    5084923.7   -6314910.5    29433.737     273038.1   -1020026.8    300.74342   -75.936497   -109.05529    -120.5087    1.7544983    3893043.9    1.1052516    1877.1721 
  180000   -748521.79    83334.488    5085656.6   -6314891.8    29434.202    272574.14   -1021095.9    300.23237   -83.763296   -165.44451   -182.74842    96.903037    3894032.9    1.1049708    1888.6037 
  181000   -747319.36    82502.513    5087594.1   -6314891.6    29394.977    272736.88   -1020056.2    300.41163   -176.27332   -231.39625   -253.92252    -43.50119    3891896.9    1.1055773    1899.6054 
  182000   -747268.11    82595.981    5087935.6   -6314904.5    29297.516    272546.15   -1019814.3    300.20155   -49.221686   -139.11093   -38.766646    30.212519      3890642    1.1059339    1910.7206 
  183000   -748055.99    82691.344    5087162.1   -6314888.2    29401.252    271783.16   -1019839.1    299.36113   -55.678134   -125.18971   -138.30169    96.456991    3889679.6    1.1062075    1921.7412 
  184000   -747529.58    83024.208    5086863.5   -6314816.7    29164.218    272516.37     -1020046    300.16874   -107.37187   -191.97451   -254.02234    123.88124    3893661.1    1.1050764     1932.807 
  185000   -746460.08    83171.449    5087151.2   -6314914.2    29667.472    272604.15   -1019064.2    300.26543     -85.5411   -166.15484   -99.535854    9.0673882    3891711.4      1.10563    1943.9518 
  186000   -748262.24    82731.657    5086743.5     -6314911    29189.535    272006.69   -1020268.9    299.60734   -64.742124   -100.88336   -110.26797    16.924958    3895109.7    1.1046654    1955.0986 
  187000   -748589.69    82741.437    5086711.4   -6314856.2    29419.204     272014.3     -1020604    299.61572   -157.16893   -300.67263   -215.48662    44.652447    3892233.9    1.1054816    1966.0533 
  188000   -746912.21    82159.787    5088522.4   -6314878.1    29450.053    272330.07   -1019242.3    299.96354   -62.636419   -87.020167    -159.6244    58.735315    3894232.9    1.1049141    1977.1053 
  189000   -747947.28    82856.836    5087253.4   -6314867.8    29235.694    272210.64   -1020157.9    299.83199   -28.088155    81.190659   -137.40713   -28.047989    3888654.2    1.1064992    1988.2716 
  190000   -747285.77      83029.9    5087577.5   -6314873.2    29256.544    272489.61   -1019775.4    300.13927   -82.324987   -124.40036   -178.02702    55.452412    3891359.6      1.10573    1999.8429 
  191000   -748515.82    82635.353    5087563.2     -6314896     29474.38    271893.56   -1020409.4    299.48274   -152.94198   -314.50934   -126.07302   -18.243572    3891064.9    1.1058137    2010.9073 
  192000   -747334.09    83857.635    5086202.7   -6314900.5    29265.829    272563.85   -1019897.9    300.22104   -7.4415149   -6.3125874   -75.695929    59.683971    3890702.3    1.1059168     2021.962 
  193000   -748256.58    83660.938    5085929.5   -6314924.5    29311.225    271927.27   -1020183.8    299.51987   -117.48823   -248.75981    -124.9429    21.238013      3892096    1.1055207    2033.0983 
  194000   -747155.83    82903.088    5087691.8   -6314876.6    29528.191    271960.14     -1019116    299.55607   -114.02749   -249.01036   -68.555389   -24.516716      3892586    1.1053816    2044.2563 
  195000   -748134.33    81976.575    5088581.3   -6314883.1    29390.787    271886.34   -1020020.7    299.47478   -123.72441    -160.0188   -194.47299   -16.681427    3894194.2    1.1049251    2055.5039 
  196000   -747802.81    82754.774    5087043.7   -6314895.2    29225.721    272424.19     -1020227     300.0672    24.140089   -37.242944   -85.150884     194.8141    3890828.7    1.1058808    2066.7114 
  197000   -747000.82    82541.755    5087603.2   -6314930.7    29411.323    272755.43   -1019756.2    300.43206   -139.50732   -88.234628     -243.545   -86.742334    3895305.2    1.1046099    2077.9477 
  198000   -747657.58    83193.203    5087262.6   -6314932.9    29547.558    272159.04   -1019816.6    299.77515   -71.289929   -68.430879   -190.89332    45.454411    3889965.8    1.1061261    2089.1733 
  199000   -747592.46    82642.382    5087933.1   -6314843.7    29391.197     271744.6   -1019337.1    299.31866   -129.04559   -186.56422    -286.7917    86.219139    3892359.2     1.105446    2100.2159 
  200000   -748518.57    83574.806    5086697.7   -6314857.6    29287.519    271399.13   -1019917.7    298.93814    -32.62063   -136.05582   -15.027542    53.221469    3889902.9     1.106144    2111.6249 
  201000   -747523.36    82194.846    5088359.3   -6314847.1    29228.921    272520.61     -1020044    300.17341   -90.488378    20.796397   -203.66152   -88.600015    3889715.2    1.1061974    2122.6711 
  202000   -747579.98    83701.464    5086332.9   -6314879.5    29082.895    272742.75   -1020322.7     300.4181    41.759157   -68.656502    110.59835    83.335622    3891342.6    1.1057348    2133.7403 
  203000   -747329.26    81817.532    5087921.2   -6314901.9    29287.003    273028.57   -1020357.8    300.73291   -104.04448    -146.7204   -148.67565   -16.737396      3891639    1.1056506    2144.7121 
  204000   -748303.75      83605.9    5086360.9   -6314898.2    29653.804    272117.88   -1020421.6    299.72982   -75.086096    -116.7468    -182.2788     73.76731    3891764.7    1.1056148    2155.6962 
  205000    -746972.4    81720.961    5088901.6   -6314883.8     29264.06    272166.32   -1019138.7    299.78317   -96.215878   -209.80111   -133.13492    54.288391    3892524.3    1.1053991    2166.7304 
  206000   -748364.95    82948.337    5087109.3   -6314847.2    29140.148    271965.72   -1020330.7    299.56222   -138.59088   -63.182134   -281.24822   -71.342269    3886758.4    1.1070389    2177.7929 
  207000   -746694.01    82037.706    5088332.5   -6314903.3    29407.855    272959.86   -1019653.9    300.65724   -77.288197   -191.74668   -42.512522    2.3946086    3884631.6     1.107645    2188.8787 
  208000   -747801.55    81776.962    5088029.9   -6314907.5    29275.195    272547.56   -1020349.1     300.2031   -135.37215   -120.38181   -224.32589   -61.408756    3892082.6    1.1055245     2199.958 
  209000   -748804.74    81952.683    5087758.4   -6314892.6    29497.939    272053.53   -1020858.3    299.65894   -213.32514   -308.79694   -196.12776   -135.05071    3891420.8    1.1057126    2211.0539 
  210000   -748136.49    82918.355    5087191.1   -6314843.7    29011.137     271983.4   -1020119.9    299.58169   -15.698706    -129.4928   -20.526135    102.92282    3887474.5     1.106835     2222.583 
  211000   -746240.86    83319.216    5087257.6   -6314883.6    29336.615     273434.8   -1019675.7    301.18037    -57.92917   -53.351207   -133.14161    12.705307    3889632.7    1.1062209    2233.7342 
  212000      -747649    82549.233    5088187.2   -6314892.3    29378.952    271732.49   -1019381.5    299.30532   -110.84631   -129.59171   -145.69054   -57.256678    3891670.7    1.1056416    2244.9357 
  213000   -747990.25    82306.975    5088361.5   -6314878.2    29111.098    271848.14   -1019838.4     299.4327   -121.56641   -260.27802   -159.52406    55.102851    3892843.7    1.1053084      2255.97 
  214000    -746554.8    81587.291    5089522.9   -6314934.3    29341.215    272551.88   -1019106.7    300.20785   -167.42317   -126.76454   -345.35024   -30.154728    3892694.9    1.1053507    2266.9621 
  215000   -748307.88     82779.35    5087436.2   -6314908.8    29245.865    271724.64   -1020032.5    299.29668    -91.14205   -115.12974   -103.98111   -54.315298    3888156.5    1.1066409    2277.9683 
  216000   -748765.09    82140.496    5087522.1   -6314926.5    29340.425    271591.52   -1020356.6    299.15004   -181.67516   -216.67652   -194.75945    -133.5895    3892526.1    1.1053986    2288.9675 
  217000   -747821.06    82690.399    5087356.6   -6314893.7    29355.223    272166.53   -1019987.6    299.78341   -120.95872   -114.35179   -69.304324   -179.22005    3886946.2    1.1069854    2299.9891 
  218000   -747293.32    82568.892    5087659.4   -6314927.7    29226.272    272549.63   -1019842.9    300.20538   -78.899536    -161.5527   -153.61976    78.473851    3891802.6    1.1056041    2311.0134 
  219000   -747618.11    82772.364    5087127.5   -6314907.1    29181.282    272819.42   -1020437.5    300.50254   -46.604275   -75.444517   -182.44231      118.074    3889433.6    1.1062775    2322.1507 
  220000   -748152.98     82831.21    5087123.8     -6314880    29414.974    271925.76   -1020078.7     299.5182    -132.8567   -156.98712   -168.60344   -72.979547    3892569.7    1.1053862    2333.5276 
  221000   -747512.73     82687.94    5088079.5   -6314909.7    29412.533     272086.1   -1019598.8    299.69482   -23.839326   -182.64874   -104.62086    215.75163    3889231.3     1.106335     2344.615 
  222000   -748738.52    82853.488    5087246.2   -6314863.6    29323.433    271147.33   -1019885.9    298.66079   -28.090897   -67.705475   -63.236773    46.669558    3888474.5    1.1065503    2355.5767 
  223000   -747395.48    81255.498    5089124.6   -6314939.3    29449.388    272572.03   -1019967.5    300.23005   -153.47788   -294.29623   -168.71219    2.5747773      3890660    1.1059288    2366.5335 
  224000   -747720.51    82173.335    5087623.5   -6314947.9    29501.634    272565.79   -1020286.3    300.22317   -58.299897   -174.50022   -75.426981    75.027515    3890176.4    1.1060663    2377.5896 
  225000   -748046.72    82323.093    5087547.1   -6314942.1    29330.034    272156.57   -1020203.3    299.77243   -74.651811   -209.63664   -105.98099    91.662197    3887817.3    1.1067374    2388.6236 
  226000   -746432.78    82460.831    5087758.7   -6314916.1    29370.092    273419.26     -1019852    301.16325   -119.20776   -94.380715    -137.6348   -125.60775    3888967.3    1.1064101    2399.6793 
  227000   -748063.26     81716.24    5088594.7     -6314918    29213.117    272032.47   -1020095.7    299.63574   -131.82943   -117.84065   -238.99745   -38.650196    3890441.7    1.1059908    2410.8495 
  228000   -747613.82    81541.757    5088856.3   -6314913.9     29105.11    272459.29   -1020073.1    300.10587   -192.86523   -105.18518   -297.22906   -176.18144    3895325.5    1.1046042    2421.9362 
  229000   -747448.42    83333.346    5087380.2   -6314869.1    29349.198    272004.37   -1019452.8    299.60479   -133.96758   -128.36637   -207.59045   -65.945923      3891803     1.105604    2433.0754 
  230000    -748057.9    82947.319    5087066.8   -6314896.3    29239.511    272411.26   -1020469.2    300.05296   -149.79595   -114.15174   -307.92906   -27.307036    3891536.2    1.1056798     2444.604 
  231000    -747209.7    82476.866      5087480   -6314888.6    29081.152    273024.75   -1020234.4     300.7287   -48.526917   -100.55942   -92.079114    47.057787    3891375.4    1.1057254    2455.6223 
  232000   -748140.01    82335.018    5087809.5   -6314904.8    29245.396    271874.73   -1020014.7      299.462   -136.76486   -208.28676   -224.22143    22.213624    3889503.1    1.1062577    2466.6382 
  233000   -746805.64     81730.76    5088464.7   -6314863.6    28977.671    272899.73   -1019705.4      300.591   -9.5624124   -171.89048   -39.125548    182.32879    3890048.7    1.1061026    2477.5404 
  234000   -747512.01    82456.521    5087883.9   -6314889.8     29260.25    272773.76   -1020285.8    300.45225    -44.15189   -167.60354   -26.462905    61.610773    3886325.8    1.1071622    2488.5939 
  235000   -747218.37    82497.302      5088339   -6314908.7    29351.949    272248.84   -1019467.2    299.87406   -116.94771   -187.38992   -68.425617   -95.027584    3889798.4    1.1061737    2499.5882 
  236000   -746724.28    82343.848    5088275.4   -6314871.7    29156.411    272935.76     -1019660    300.63069   -63.791686   -100.93584   -71.308841   -19.130379    3886519.2     1.107107    2510.6594 
  237000   -748177.52    82442.775      5087230   -6314864.9    29433.287    272127.33   -1020304.8    299.74022   -134.97263   -136.69149   -263.97916    -4.247243    3889232.2    1.1063348    2521.7558 
  238000   -748458.64    82405.753    5087382.8   -6314919.3    29357.495    271897.64   -1020356.3    299.48723   -53.652564   -79.211941   -59.433775   -22.311976    3890460.5    1.1059855    2532.8092 
  239000   -746411.39    82177.377    5089062.6   -6314903.5    29379.004    272544.41   -1018955.8    300.19963   -91.593187    -132.6919   -139.46225   -2.6254051    3890123.2    1.1060814    2543.9037 
  240000   -747548.21     82909.49    5087397.9   -6314911.5    29222.972    272420.48   -1019968.7    300.06312   -9.4488374    24.322465   -12.497575   -40.171402    3883660.8    1.1079219    2555.2586 
  241000   -747815.72    81014.998    5089590.7   -6314891.2    29325.691    271936.06   -1019751.8    299.52955    -177.4202   -163.77714   -236.03687    -132.4466    3890615.6    1.1059414    2566.3262 
  242000   -747548.56    82104.692    5087924.5     -6314875    29452.877    272387.51   -1019936.1     300.0268   -95.245046   -124.01415   -241.65701    79.936024    3887676.9    1.1067774    2577.3736 
  243000   -747738.01    81682.089    5089044.5   -6314889.2    29294.649    271987.29   -1019725.3    299.58598   -119.46026   -117.52788    -66.89323   -173.95968    3892536.2    1.1053957    2588.3508 
  244000   -747521.69    81190.611    5089632.4     -6314911    29134.883    272396.94   -1019918.6     300.0372   -102.80369   -85.889456   -180.36375   -42.157866    3887900.8    1.1067136    2599.3166 
  245000   -746023.14    82639.942    5087891.4   -6314899.3    29414.447    273096.89     -1019120    300.80817   -87.317385   -105.71932    -72.50929   -83.723545    3888299.3    1.1066002    2610.3926 
  246000   -748236.19    82545.971    5087617.4   -6314918.2     29160.65    272235.36   -1020471.5    299.85922   -45.618411   -184.38219    -24.74863    72.275585      3885399    1.1074263    2621.4198 
  247000   -747426.16    82722.431    5087266.1     -6314929    29332.534    273056.14   -1020482.3    300.76328   -47.493693   -114.81173    52.483012   -80.152363    3883810.4    1.1078792    2632.4767 
  248000   -748091.34    82986.691    5087232.8     -6314882    29365.959    271829.85   -1019921.2    299.41256    10.365255   -24.027106  -0.37532677    55.498197    3888242.3    1.1066164    2643.5215 
  249000   -747011.76    81754.077    5089418.9   -6314894.6    29414.931    271942.48   -1018954.2    299.53662   -136.26313   -158.65847   -260.48559    10.354668    3893493.4     1.105124    2654.6585 
  250000   -747803.96    83524.677    5086232.6   -6314847.5    29569.517    272128.07     -1019932    299.74104    -45.65273   -5.5416063   -65.205151   -66.211432    3891195.6    1.1057765    2666.0222 
  251000   -747603.14    82291.782    5088024.4   -6314862.2    29179.385    272384.97   -1019988.1      300.024   -55.541655   -75.788993   -74.136025   -16.699948    3888298.4    1.1066005    2677.1712 
  252000   -747993.04     82547.47    5087742.7   -6314910.7    29237.514    272179.11   -1020172.2    299.79726   -130.65998   -161.19147   -199.39621   -31.392237    3890312.9    1.1060274    2688.1973 
  253000   -747181.03    83279.227    5087172.1   -6314949.6    29170.872     272962.1   -1020143.1     300.6597   0.42006867     5.385044   -54.338095    50.213257    3888430.8    1.1065628    2699.2169 
  254000   -747318.96    83218.462    5087931.7   -6314899.8     29403.01    272021.93   -1019340.9    299.62413   -52.777554   -58.591566   -191.25283     91.51173    3891598.2    1.1056621      2710.21 
  255000   -746753.51    82273.323    5088962.7   -6314898.3    29265.734    272141.14   -1018894.7    299.75544    13.281138    19.013411   -10.979979    31.809981    3887517.2    1.1068229    2721.3544 
  256000   -748699.03    82589.199    5087313.8   -6314911.3    29301.801    272015.65   -1020714.7    299.61722   -117.23654   -236.93221   -95.823444   -18.953982    3888487.3    1.1065467    2732.4101 
  257000   -746530.98    81111.024      5090334   -6314843.9    29474.583    272024.81   -1018555.8    299.62731   -92.799655   -152.40756   -88.273363   -37.718038    3889226.6    1.1063364    2743.5313 
  258000   -747576.46    81134.374    5089231.6   -6314910.8    29543.075    272307.39   -1019883.8    299.93856   -246.74533   -231.75325    -402.5117   -105.97105    3884227.1    1.1077604    2754.5164 
  259000   -748292.27    82552.289    5087681.5   -6314891.5    29404.402    271676.86   -1019969.1    299.24404   -58.075876   -122.14746   -40.566743   -11.513429    3888449.8    1.1065574     2765.657 
  260000   -747971.91    82226.397    5088440.4   -6314852.6    29243.859    272304.82   -1020276.7    299.93573   -40.605193    98.684962   -122.88413   -97.616414    3888773.5    1.1064653    2777.2354 
  261000   -746912.37     81375.93    5089228.6     -6314898    29174.644    272547.12   -1019459.5    300.20261   -72.717792    -146.8475   -56.042543   -15.263334    3888526.3    1.1065356    2788.4285 
  262000   -747601.53    82003.615    5088248.8   -6314912.5    28941.924    273210.81   -1020812.3    300.93364   -97.489164   -108.86814    -180.8785   -2.7208605    3891910.8    1.1055733    2799.3915 
  263000   -747734.07     81256.02    5089649.8   -6314894.9    29298.662    272202.41   -1019936.5    299.82292   -168.97794   -127.36147   -319.74595   -59.826401    3891612.9     1.105658    2810.3855 
  264000   -747245.63    82442.937    5088794.8   -6314893.4    29094.495    271915.33     -1019161    299.50672   -52.518994    16.624714   -254.92408    80.742386    3891809.1    1.1056022    2821.4124 
  265000   -747507.16    82641.511    5088181.9   -6314877.2     29293.58    272170.81     -1019678    299.78812   -72.023184   -91.102192   -65.532296   -59.435063    3891881.5    1.1055817    2832.4087 
  266000   -748163.23    82618.329    5087836.9   -6314868.9    29266.723    272071.65   -1020234.9     299.6789   -7.1329279   -40.298036   -109.04902    127.94827    3890095.5    1.1060893    2843.4012 
  267000   -746601.05    81807.453    5089172.6   -6314877.8    29157.263    273316.65   -1019917.7    301.05023   -131.69174    -292.0056   -41.676768   -61.392858    3891526.5    1.1056825    2854.5386 
  268000   -747738.81    81587.516    5089275.4   -6314905.6    29192.355    271926.21     -1019665     299.5187   -109.40302    -88.50246   -167.56444   -72.142173      3893404    1.1051493    2865.6566 
  269000    -748050.4    82532.923      5087885   -6314914.8    29183.366    271584.62     -1019635    299.14245   -1.6783767   -67.787641    123.54482   -60.792308    3887205.7    1.1069115    2876.6113 
  270000   -746859.18     81215.76    5089369.8   -6314889.3    29366.531    272698.36   -1019557.5     300.3692     -212.448   -218.23851   -263.70212   -155.40337    3888594.5    1.1065162    2887.9257 
  271000   -747598.74    82442.511    5088462.2   -6314927.9    29339.326    271619.05   -1019217.8    299.18037    13.050304     57.73437   -141.52739    122.94393      3886387    1.1071447    2899.0562 
  272000   -747533.44    81804.191      5088863   -6314913.3    29219.841    272532.62   -1020066.1    300.18664    -67.45331   -52.314095   -172.45047    22.404633    3887317.4    1.1068797     2910.082 
  273000   -748134.63    81861.473    5088244.7   -6314910.9    29217.911    272184.55   -1020319.2    299.80325   -8.0946941   -1.3857963   -194.03881    171.14053    3880979.1    1.1086875    2921.0828 
  274000   -747817.55    82749.458    5087801.3   -6314903.7    29473.529     272330.7   -1020148.3    299.96423   -94.593443   -57.153101   -172.19475   -54.432477      3884110    1.1077938    2932.1235 
  275000   -747648.26    81873.957      5088478   -6314898.2    29387.237    272681.35   -1020329.6    300.35047   -29.639177   -120.80815   -61.356277    93.246899    3884842.4    1.1075849    2943.1886 
  276000   -748952.72    81670.779    5087873.2     -6314912    29312.012    272082.23   -1021034.9    299.69055   -55.267392   -155.75662   -208.65799    198.61243    3885041.2    1.1075282    2954.2661 
  277000   -747365.64    82170.003      5087897     -6314896    29262.464    272983.17   -1020348.8    300.68291   -115.44115   -195.03795   -132.77819   -18.507297    3889578.6    1.1062362    2965.2745 
  278000   -748143.76     82146.16    5087929.8     -6314873    29146.937    272292.13   -1020435.9    299.92175   -27.572234    17.677805   -173.48739    73.092882    3883391.1    1.1079988    2976.3813 
  279000   -748043.04    81516.917    5088731.7   -6314891.4    29361.427    271998.61   -1020041.6    299.59844   -98.735156   -137.79378   -31.673006   -126.73868      3886471    1.1071208     2987.589 
  280000   -747411.42    81824.414      5088176   -6314846.8    29269.915    272855.64   -1020267.1    300.54244   -132.05941    23.167898   -317.20337   -102.14275    3884977.6    1.1075464    2998.8807 
  281000   -748392.43     81656.15      5088253   -6314917.3    29438.819    272185.22   -1020577.6    299.80399   -190.20241   -299.25214   -271.93958   0.58449315    3888857.2    1.1064415     3009.839 
  282000   -747517.54    82225.846    5088293.2   -6314907.6    29264.659    271993.46     -1019511    299.59277   -16.244211   -26.869032    31.362838   -53.226437    3887534.8    1.1068178    3020.8038 
  283000   -747760.11    81982.318      5087712   -6314853.7    29187.397    272841.83   -1020601.9    300.52723   -144.34754   -185.18252   -190.29544   -57.564644    3888299.9       1.1066    3031.8256 
  284000   -747873.41    82440.591    5087539.5   -6314910.2     29390.91    272872.14   -1020745.6    300.56061   -97.025705   -237.48155   -31.897112   -21.698453    3886393.2    1.1071429    3042.8106 
  285000   -746954.49    82528.182    5088459.7   -6314900.6    29157.913    272321.78   -1019276.3    299.95441   -62.648885   -174.36955   -36.153741    22.576633    3888488.8    1.1065463    3053.8334 
  286000   -748529.92    82134.328    5087835.4   -6314909.7    28957.506    272493.03   -1021022.9    300.14303   -15.562094    -174.8709    107.19142    20.993199    3884999.5    1.1075401    3064.9553 
  287000   -748902.46     82637.16    5086934.7   -6314913.8    29134.183    272047.32   -1020949.8    299.65209   -121.69585   -110.03138   -226.35859   -28.697585    3889280.3    1.1063211     3075.994 
  288000   -747945.45    82036.591    5088148.5   -6314901.8    29080.813    272225.66   -1020171.1    299.84854    29.825193    8.2541325   -48.222802    129.44425    3890058.4    1.1060998    3086.9501 
  289000   -747171.89    81602.722    5088946.6   -6314870.3    29249.189    272868.12     -1020040    300.55618   -118.20834   -192.64962   -201.22639    39.250981    3886362.7    1.1071516    3097.9074 
  290000   -748820.33    82018.378    5087412.2     -6314937    29344.517    272263.49   -1021083.8    299.89021    -104.7088   -229.54708   -19.332911   -65.246401    3889098.5    1.1063728    3109.3613 
  291000   -747339.49    83173.428    5087515.6   -6314864.7    29402.257    272445.04   -1019784.5    300.09017    50.693723   -78.225251    78.809258    151.49716    3887102.2     1.106941     3120.336 
  292000   -748891.17    82513.623    5087638.8   -6314860.5    29173.326     271678.2   -1020569.4    299.24552     -14.9991   -190.48401   -46.490762    191.97747    3886649.1    1.1070701    3131.3262 
  293000   -748091.21    82030.181    5088562.7     -6314932    29312.979     271538.3   -1019629.5    299.09143   -46.212641   -198.23851   -5.0733783    64.673965    3889822.2     1.106167    3142.3379 
  294000   -748283.09    81251.982    5089001.7     -6314871    29256.432    272324.74   -1020607.8    299.95767   -132.25819    -183.1362   -182.41421   -31.224157    3890274.7    1.1060383    3153.3028 
  295000      -747445    81946.588    5088793.9   -6314840.6    29095.136    272485.15   -1019930.1    300.13435   -127.19113   -187.61806   -188.16747   -5.7878646    3889494.2    1.1062602    3164.3253 
  296000   -749037.14    82486.539    5087112.9   -6314857.7    29329.901    272228.29   -1021265.4    299.85143   -56.540516   -64.560614   -122.47315    17.412212    3886051.7    1.1072402    3175.4118 
  297000   -747904.61    83175.742    5087038.7   -6314883.8    29220.992    272504.23   -1020408.8    300.15537   -46.839304   -49.899832   -123.42163    32.803554    3891305.3    1.1057454    3186.5463 
  298000   -746957.56    82362.519      5088063   -6314919.5     29437.42    273226.95   -1020184.5    300.95142   -142.59473   -178.91013   -273.51272    24.638652    3890160.7    1.1060707    3197.6796 
  299000   -747604.89    81169.229    5089349.8   -6314878.9     29248.02    272171.48   -1019776.4    299.78886   -164.46335   -162.26743   -248.66796   -82.454672    3890653.9    1.1059305    3208.8442 
  300000   -748900.86    82803.564    5087253.1     -6314861    29091.263    272027.63   -1020928.5    299.63041    -106.4777   -108.40547   -223.28754    12.259914    3888084.2    1.1066614    3220.2749 
  301000   -748007.17    82087.939    5088016.4   -6314854.9    29258.503    272155.57   -1020162.7    299.77134    25.393023   -7.6335677   -142.14062    225.95326    3886177.3    1.1072044    3231.3919 
  302000   -746852.79    81888.523    5088990.8   -6314895.2     29184.93    272735.81   -1019588.6    300.41045   -103.32994   -127.07127   -235.59731     52.67877      3892068    1.1055287     3242.421 
  303000    -747001.3    81020.448    5089804.2     -6314895    29422.627    272748.71     -1019750    300.42465    -45.16004    4.4600856   -141.15846    1.2182535    3886595.5    1.1070853     3253.474 
  304000   -746925.31    81494.761    5088925.4   -6314854.9     29401.25    272993.48   -1019918.8    300.69426   -158.64748   -130.21963   -276.90178   -68.821039    3888808.4    1.1064553     3264.561 
  305000   -748071.16    81678.472      5088369   -6314906.2    29194.628    272629.54   -1020700.7    300.29339    -97.81085   -215.03905   -177.46926    99.075765    3887520.1     1.106822     3275.645 
  306000    -746821.5    82122.554      5088867   -6314840.4    29399.638    272248.65   -1019070.1    299.87385   -74.247853   -67.501464   -163.51533     8.273239    3886475.2    1.1071196    3286.7598 
  307000   -747552.22    80966.238    5089711.2     -6314862     29240.53    272628.89   -1020181.1    300.29268   -201.19757   -250.82603   -232.04162   -120.72506    3887280.4    1.1068903    3297.8189 
  308000   -748805.99    82203.822    5088132.5   -6314913.7    29245.224    271986.14   -1020792.1    299.58471   -85.472786   -151.01475   -114.75679     9.353184    3889006.4     1.106399     3308.866 
  309000   -747661.85    81207.541    5089093.5   -6314908.8    29208.384    272626.44   -1020288.3    300.28998   -157.52557   -250.77819   -171.08258   -50.715938    3884796.5     1.107598    3319.9472 
  310000   -746385.31    81166.394      5089775   -6314890.3    29459.579    272778.38   -1019163.7    300.45733   -185.55984   -216.00409    -114.1919   -226.48354    3887906.2    1.1067121    3331.4056 
  311000   -747404.29    81823.425    5088672.8   -6314903.2    29247.254    272849.14   -1020253.4    300.53528   -78.087038   -188.74481   -29.670284   -15.846017    3889988.5    1.1061197    3342.4707 
  312000   -749315.74    81834.552    5088223.7   -6314910.4    29056.281     271504.2   -1020819.9    299.05387   -71.522956    -34.22905   -120.69092   -59.648897    3886296.1    1.1071706    3353.5955 
  313000   -747981.17    82037.801    5088622.5     -6314860    29030.058    272308.26   -1020289.4    299.93951   -36.791846    72.286999   -158.82169   -23.840847    3891772.7    1.1056126    3364.6182 
  314000   -747057.22    81234.586      5090274   -6314844.3     29000.97    272594.89   -1019652.1    300.25523   -64.823558   -52.575025   -121.66198   -20.233672    3887811.3    1.1067391    3375.5909 
  315000   -747476.17     82030.64    5088446.1   -6314903.7    29019.584     272687.7   -1020163.9    300.35746    -77.26799   -112.79473   -158.09948    39.090237      3891556    1.1056741    3386.6124 
  316000   -747092.07    81432.662    5089150.9   -6314938.5    29404.331    272603.28   -1019695.4    300.26448   -144.88588    11.510706   -185.06487   -261.10348    3888421.4    1.1065655    3397.7068 
  317000   -746695.57     81380.09    5089804.2   -6314863.4    29224.312    272467.17   -1019162.7    300.11455   -82.591373   -33.880994   -109.44615   -104.44697    3891516.9    1.1056853    3408.8354 
  318000   -747727.29    83014.185    5087348.4   -6314883.8    29189.252    272109.68     -1019837    299.72079   -40.890252   -72.217138   -108.57411    58.120496    3886466.6     1.107122    3419.9012 
  319000   -748012.86    81776.976    5088345.1   -6314921.6    29255.653    272436.36   -1020449.2    300.08062   -103.68768   -120.26377   -233.12685    42.327585    3887339.7    1.1068734    3430.9383 
  320000   -746858.04    80842.008    5088877.4   -6314899.1    29603.504    273922.01     -1020780    301.71701   -231.89156   -332.35947   -368.53254    5.2173338    3887235.8     1.106903    3442.3197 
  321000   -748182.95    82183.355      5088219   -6314906.5    28995.482    272264.69   -1020447.6    299.89152    -15.92891    19.453912   -172.65889    105.41825      3889965    1.1061264    3453.3213 
  322000   -746460.12    81680.595    5089897.7   -6314848.4    29145.579    272659.85     -1019120    300.32678   -56.229159   -225.79307   -39.982838    97.088427    3886929.9    1.1069901    3464.3754 
  323000   -748522.18    82334.498    5087300.1   -6314947.7     29283.29    272352.28   -1020874.5      299.988   -141.63024   -156.64581   -245.96303   -22.281872    3883717.3    1.1079058    3475.3838 
  324000   -747962.67    82062.359    5087814.1   -6314905.5     29577.09    272691.91   -1020654.6     300.3621   -173.30954   -307.45765   -135.69005   -76.780919    3887054.1    1.1069547     3486.382 
  325000   -748077.95    82184.322    5088656.5   -6314923.8    28966.844    271943.06     -1020021    299.53726    29.107323    16.336385    104.01306   -33.027476    3886843.8    1.1070146     3497.508 
  326000   -747407.86    81003.617    5089657.7   -6314887.2     29306.24    272395.79   -1019803.7    300.03593   -124.23222   -81.075091   -190.26513   -101.35646    3890056.4    1.1061004    3508.5023 
  327000   -747786.86    81173.896    5089378.1   -6314895.8    29295.655    272355.56   -1020142.4    299.99161   -141.53037   -120.68579   -297.56267   -6.3426687    3886872.8    1.1070063     3519.647 
  328000   -747665.29    81786.311      5088877   -6314850.8    29185.346     272275.4   -1019940.7    299.90332   -132.89303    -173.1525   -153.29093   -72.235673    3886965.8    1.1069799    3530.6791 
  329000   -747895.52    82223.307    5088060.1   -6314836.1    29315.558    272096.88   -1019992.4    299.70669   -77.782547   -136.87107   -139.09954    42.622975      3884327    1.1077319    3541.7643 
  330000   -747391.95    81529.055    5088713.8   -6314844.7    29144.496    272578.04     -1019970    300.23667   -66.850309   -128.69272   -137.09761    65.239402    3886659.9     1.107067     3553.038 
  331000   -747581.58    82106.959    5087990.9   -6314906.5    29330.402    272568.72   -1020150.3     300.2264   -23.150843   -28.460216   -74.435895    33.443583    3887857.9    1.1067259    3564.0373 
  332000   -747625.29    81594.448    5088520.2   -6314925.8    29350.455    272676.71     -1020302    300.34535   -150.85793   -118.76564   -274.18455   -59.623607    3891145.2    1.1057909    3574.9925 
  333000    -747852.9    82624.412    5087157.2   -6314904.4    29249.596    273142.96   -1020995.9    300.85891   -84.284988   -172.40995   -152.54438    72.099372    3889854.9    1.1061577    3586.0142 
  334000   -748048.31    81673.844    5088367.4   -6314901.1    29293.711    272243.75   -1020292.1    299.86846   -87.979573     17.69561   -230.45225   -51.182077    3885087.2    1.1075151     3596.983 
  335000   -748177.24     82506.39    5087296.3     -6314893    29226.081    272560.79     -1020738    300.21767   -72.660471   -141.53084   -94.023704    17.573136    3886869.6    1.1070073    3607.9175 
  336000   -747203.38    80850.544    5089207.9   -6314906.1      29668.3     272993.9   -1020197.3    300.69472   -192.03841   -231.11587   -368.49186    23.492504    3889475.4    1.1062656    3618.8634 
  337000   -748861.86    81702.742    5087945.5   -6314909.2    29184.996    272131.58   -1020993.4    299.74491   -20.160117   -185.25824    53.463047    71.314843    3885607.8    1.1073667    3629.8635 
  338000    -747716.5    81841.635    5087974.3   -6314902.4     29088.38    272901.26   -1020617.8    300.59269   -53.678346   -91.915647   -156.88245    87.763059    3887943.1    1.1067016    3640.8427 
  339000   -748999.29    81549.555    5087642.4   -6314879.9      29301.9    272517.55   -1021516.8    300.17004   -178.72469   -241.44291   -215.57218   -79.158982    3889416.2    1.1062824    3651.8216 
  340000   -747419.85      82413.5    5087854.8   -6314888.4    29300.493    272656.67   -1020076.5    300.32328   -2.7585394    133.30051   -108.21586   -33.360272    3889596.7    1.1062311    3663.1254 
  341000   -747485.72    83105.202    5087826.5   -6314882.3    29181.906    272281.38   -1019767.1    299.90991   -8.8714015   -127.40766    31.201042    69.592415    3889217.7    1.1063389    3674.1742 
  342000    -746645.3     82501.61    5088199.3   -6314896.2    29233.844       273124   -1019769.3    300.83803    43.289368    54.957007   -97.599174    172.51027    3884075.1    1.1078037    3685.2221 
  343000   -747897.69     83143.11    5087345.4   -6314896.8     29269.06    271860.01   -1019757.7    299.44578    21.066878    79.107971   -4.2926634   -11.614672    3890319.7    1.1060255    3696.1469 
  344000   -749328.69     81230.38    5088414.4   -6314889.9    29164.824    272141.47   -1021470.2     299.7558   -75.586892   -64.666673   -79.584197   -82.509805    3884903.3    1.1075676    3707.1722 
  345000   -747822.97    82109.262    5088212.7     -6314870    29262.098     272130.5   -1019953.5    299.74372   -86.825036   -77.579837   -38.137788   -144.75748    3887889.5    1.1067168    3718.0779 
  346000   -748342.39    81205.627    5089703.2   -6314885.5    29443.812    271867.68   -1020210.1    299.45423   -154.81277   -210.30199   -269.56985    15.433532    3887542.2    1.1068157    3729.1416 
  347000   -747810.21    82632.184    5087865.3   -6314901.5    29458.459    272452.76     -1020263    300.09868    -61.67424    47.225187   -214.30162   -17.946286    3883381.2    1.1080017    3740.2719 
  348000   -747968.83    81904.099    5088103.1   -6314902.5    29552.722    272319.51   -1020288.3    299.95191   -290.30418   -427.34014   -304.78101   -138.79139      3887034    1.1069604    3751.3777 
  349000   -746884.41    81748.911    5088865.7   -6314847.2    29310.182    272648.93   -1019533.3    300.31475   -66.252417   -218.19072    12.821842    6.6116262    3886979.9    1.1069758    3762.3995 
  350000    -748442.2    81539.494    5088306.6   -6314937.4     29333.81    272534.55   -1020976.8    300.18877     -182.942   -222.50233   -269.38991   -56.933774    3889701.1    1.1062014    3773.6165 
  351000   -747664.79    80875.534    5089068.9   -6314886.6    29316.066    272969.15   -1020633.9    300.66746   -123.94185   -166.45298   -171.59282   -33.779749    3887158.8    1.1069249     3784.588 
  352000   -748794.72    82239.021    5087673.8   -6314912.8    28997.865    272149.27     -1020944     299.7644   -29.152666    1.7963891     -58.2145   -31.039886    3885939.9    1.1072721    3795.6159 
  353000   -747201.49    81846.129    5088029.8   -6314937.9    29280.224    273399.42   -1020600.9     301.1414   -55.580418   -124.97298   -101.65668    59.888407    3884348.8    1.1077257    3806.6027 
  354000    -748464.7     82156.65    5087434.2   -6314920.4    29071.975    272883.57   -1021348.3     300.5732   -102.01725   -59.411961    -152.2265   -94.413287    3888159.5      1.10664    3817.6432 
  355000    -748935.6    82295.175    5087410.8   -6314951.2    28932.573    272242.48   -1021178.1    299.86706    30.469974   -126.67322   -49.877094    267.96023    3887756.3    1.1067548    3828.6384 
  356000   -747756.34    81663.666    5088940.4   -6314907.8    29150.527     272356.4   -1020112.7    299.99254   -73.322011    -131.7844   -68.808711   -19.372917      3884108    1.1077943    3839.6579 
  357000   -749527.01     81574.11    5088290.6   -6314929.3    29186.257    271386.53   -1020913.5    298.92425   -94.859425   -191.45017   -19.060131   -74.067972    3883408.8    1.1079938    3850.6674 
  358000   -748652.18    81788.407    5087851.5     -6314886    29163.205    272407.95   -1021060.1    300.04932   -13.166269   -139.97598    14.849335    85.627838    3883074.6    1.1080892     3861.634 
  359000   -748586.96    80851.717    5089161.5   -6314896.1    29316.226    271865.74   -1020452.7    299.45209   -88.710826   -33.454747   -300.15255    67.474821    3886535.8    1.1071023    3872.6156 
  360000   -749193.09     82132.87    5087584.8   -6314866.9    29344.695    271808.37   -1021001.5     299.3889   -93.718242    -240.0184   -107.19082    66.054499    3886981.7    1.1069753    3883.9492 
  361000   -747722.67    81636.954    5089211.9   -6314891.6    29573.602    272418.19   -1020140.9     300.0606   -92.426665   -183.03536   -59.468815   -34.775814    3885596.9    1.1073698      3895.07 
  362000   -748280.59    82936.274    5087246.5   -6314881.8    29298.335    271978.91   -1020259.5    299.57675   -94.500469   -47.572105    -128.2911    -107.6382    3889456.1    1.1062711    3906.1225 
  363000   -748073.44    81806.227    5088131.9   -6314895.1    29254.006     272245.8   -1020319.2    299.87071   -35.825924   -103.19276   -98.506653    94.221642      3884581    1.1076594    3917.1552 
  364000    -746712.2    81628.003    5089027.7   -6314888.1     29325.81    272430.34   -1019142.5    300.07398   -44.124246   -38.526059    92.611761   -186.45844    3887284.3    1.1068892    3928.1746 
  365000   -748385.05    81790.424    5087961.4   -6314892.7    29416.292    272058.36   -1020443.4    299.66425   -91.245358   -166.27624   -30.358971   -77.100862    3888100.7    1.1066567    3939.1407 
  366000   -748176.16    82221.693    5087525.1   -6314881.6    29174.133    272185.25   -1020361.4    299.80403    1.9572589   -125.25024    36.029735    95.092278    3881472.4    1.1085465    3950.1866 
  367000   -749363.12    81490.514      5087922   -6314924.4    29233.773    271887.41   -1021250.5    299.47596   -151.08129   -191.49141   -197.56841    -64.18406    3887667.3    1.1067801    3961.2659 
  368000   -748600.54    82585.113    5086652.5     -6314899    29084.832    272953.59   -1021554.1    300.65033   -85.088538    -154.4987   -96.678735   -4.0881831    3886315.5    1.1071651    3972.4437 
  369000   -749234.15     81748.23    5087556.9     -6314956    29220.297     272649.8     -1021884    300.31571   -18.167046   -25.633631   -165.28496    136.41746    3884984.7    1.1075443    3983.5157 
  370000   -748911.03    81416.206    5088607.2     -6314867    28965.865     271603.6   -1020514.6    299.16335   -111.89401   -260.89334   -92.166365    17.377686      3887742    1.1067588    3994.8361 
  371000   -748339.05    82239.078    5087765.2   -6314942.4    29279.481    272258.95     -1020598     299.8852    1.0530881    4.5029275   -83.163492    81.819829    3888371.1    1.1065798    4005.8568 
  372000   -747757.77    81190.509    5088814.7   -6314875.5    29440.327    272459.22     -1020217     300.1058   -170.71467    -267.0432   -87.035296   -158.06552    3886520.9    1.1071066    4016.9759 
  373000   -747993.21    82033.521    5088552.6   -6314969.4     29212.58    272437.92   -1020431.1    300.08233   -28.540016   -120.56266     60.89163   -25.949016    3887639.4    1.1067881    4027.9535 
  374000   -749332.28    81461.889    5088217.3   -6314921.3    29182.341     271841.7     -1021174    299.42561    -87.25033   -130.81261   -199.81233     68.87395    3886876.6    1.1070053    4039.1855 
  375000   -748877.55     82290.64    5087594.7   -6314940.3    29108.145    272249.81   -1021127.4    299.87514   -84.484714   -60.141906   -178.80071   -14.511528    3887339.6    1.1068734    4050.1797 
  376000   -748254.15    82019.886    5087746.9   -6314898.9     29200.44    272797.89     -1021052    300.47883   -28.002829    82.044455   -139.91819   -26.134757    3885178.6    1.1074891    4061.1209 
  377000   -747899.64    81684.069      5088780   -6314903.8    28915.872    272802.53   -1020702.2    300.48394   -18.750095   -77.689106   -103.50767    124.94649    3886028.9    1.1072467    4072.1361 
  378000   -747760.49    81268.939    5089451.8   -6314910.1    29096.947    272557.63   -1020318.1    300.21419   -64.971312   -133.57901   -178.91109    117.57616    3889136.9    1.1063619    4083.2357 
  379000   -749021.46    81220.676    5088874.5   -6314922.3    29194.807    271849.32   -1020870.8    299.43401   -133.91621   -231.27799   -201.94419    31.473541    3883584.3    1.1079437    4094.3055 
  380000   -747987.67    82043.121    5087831.7     -6314877    29357.694    272893.03   -1020880.7    300.58362   -141.99255   -183.74473   -133.86463    -108.3683    3888517.3    1.1065382    4105.6499 
  381000   -748958.92    81536.646    5088564.5   -6314919.3    29008.294    271781.64   -1020740.6    299.35946    10.202162   -51.900132   -20.652438    103.15905    3884931.7    1.1075594    4116.7137 
  382000   -748585.66    81298.749    5088486.9   -6314922.7    29079.038    272328.11   -1020913.8    299.96138   -7.9806123   -44.750789   -28.713616    49.522568      3886829    1.1070188    4127.7906 
  383000   -747955.86    81820.787    5087700.5   -6314878.2    29391.548    272687.44   -1020643.3    300.35717   -135.76656   -103.94714   -231.40248   -71.950054    3885335.6    1.1074443     4138.801 
  384000   -746949.87    81804.169    5088748.6   -6314868.7    29252.464    273101.79   -1020051.7    300.81356    30.517853    167.26714    -60.57572   -15.137862    3886379.8    1.1071468    4149.8252 
  385000   -748985.28    81266.441    5088328.6   -6314874.9    29154.131    271932.82   -1020918.1    299.52599   -167.48288   -223.05869   -250.72287   -28.667085    3888453.9    1.1065562    4160.9478 
  386000   -747241.59    82471.418    5087580.1   -6314837.6    29423.397    273323.65   -1020565.2    301.05793   -118.41709    -158.3846   -123.09204    -73.77464    3887245.3    1.1069003    4172.0024 
  387000   -748667.92    81531.466    5088313.6   -6314908.2    29097.675    272355.26   -1021023.2    299.99129   -90.815735   -193.49599   -193.03341    114.08219    3885666.9    1.1073499    4183.0518 
  388000   -748335.33    81898.922    5087891.7   -6314921.5    29293.122    272635.17   -1020970.5    300.29959     -53.4885   -12.157093   -80.087569   -68.220839    3888148.5    1.1066431     4194.113 
  389000   -749385.85    81074.819    5088372.5   -6314925.7    29048.791    272116.91   -1021502.8    299.72875   -123.50241   -134.91439   -104.12912   -131.46373    3884224.3    1.1077612    4205.2898 
  390000   -747007.84    81322.609    5089050.3   -6314952.2     29255.18    272944.58   -1019952.4    300.64041   -48.813406   -94.464192   -69.129921    17.153895    3885581.8    1.1073742    4216.5288 
  391000   -748625.73    81291.469    5089144.8   -6314929.2    28985.761    271992.83   -1020618.6    299.59208   -46.024314    16.081751   -230.56968    76.414988    3885227.2    1.1074752    4227.4945 
  392000   -747321.41    81386.493    5088687.3   -6314908.8    29284.078    272685.54     -1020007    300.35508   -69.023845   -99.024122   -27.434919   -80.612496      3883504    1.1079666    4238.5586 
  393000   -748257.39    81607.957      5087712   -6314881.4    29194.698    273009.77   -1021267.2    300.71221   -41.789219   -97.552515  -0.88032723   -26.934816    3886524.2    1.1071056    4249.6071 
  394000   -749129.09     82627.18    5086221.3   -6314891.6    29290.967    272190.77   -1021319.9    299.81011   -26.507142   -55.798433   -93.314362     69.59137    3886563.4    1.1070945    4260.6175 
  395000   -748576.18    82231.144    5087532.2   -6314935.7    29174.754    272130.98   -1020707.2    299.74425    40.006263    30.335272    52.036869    37.646649    3883765.9    1.1078919    4271.7371 
  396000   -747339.38    81127.528    5089101.2   -6314873.9    29087.579    272878.58     -1020218    300.56771   -34.269888   -44.470651   -64.021824    5.6828109    3885357.8     1.107438    4282.8097 
  397000   -749188.21    80536.435      5088922   -6314929.8    29055.885    271835.27   -1021023.5    299.41853   -76.699293   -124.41761   -172.76244    67.082173    3883217.6    1.1080484    4293.8829 
  398000   -748481.89    80883.796    5089264.9   -6314885.5    29235.921    271942.79   -1020424.7    299.53696   -177.66507   -274.08626   -235.52434   -23.384617    3885551.7    1.1073827    4304.8163 
  399000    -749629.2    81248.844      5088478   -6314887.9    29230.481    271405.47   -1021034.7    298.94512   -111.12932   -253.16992   -110.37024    30.152198    3883616.8    1.1079345    4315.8073 
  400000   -748277.52    80853.576    5088723.5   -6314904.3    28944.555    272785.43     -1021063    300.46511   -9.0557355   -1.9388485   -21.472868   -3.7554897    3883873.5    1.1078612    4327.1237 
  401000   -749449.56    81021.058    5087812.8   -6314897.8    29248.114    272860.98   -1022310.5    300.54832   -121.62289   -170.34925   -213.72982    19.210391    3884360.4    1.1077224    4338.0929 
  402000   -748566.83    81286.277    5088115.5   -6314909.6    29132.482    272284.23   -1020851.1    299.91305   -66.215253   -35.349121   -128.54185   -34.754786      3887735    1.1067608    4348.9767 
  403000   -749154.62    80967.522    5088260.2   -6314884.4    29212.635    272529.96   -1021684.6    300.18371   -55.011213   -15.377161   -191.40272     41.74624    3879762.6    1.1090351    4360.0143 
  404000   -748251.37    81420.823    5088321.3   -6314909.6    29319.712    272134.59     -1020386    299.74823   -72.606187   -36.785933   -255.96228    74.929651    3880483.9    1.1088289    4371.0389 
  405000   -748685.47    82064.936    5087996.8     -6314871    29109.695    272299.86   -1020985.3    299.93026   -17.887943   -6.5539628    -89.77144    42.661573    3884753.5    1.1076102    4382.1147 
  406000   -749114.45    81595.646    5087416.8   -6314901.3    29078.085    272677.35   -1021791.8    300.34606   -99.177963   -117.42441   -248.49855    68.389077    3880687.8    1.1087707    4393.0661 
  407000    -748793.6    81914.685      5087588   -6314878.1    29241.119    272693.76   -1021487.4    300.36413   -38.553549   -51.196192   -11.728091   -52.736363    3887075.7    1.1069485    4404.1071 
  408000   -748783.25    82815.061    5086637.4     -6314952    29190.211    272797.82   -1021581.1    300.47875   -18.965653   -47.800895    -79.26312    70.167055    3884765.8    1.1076068    4415.1071 
  409000   -748970.42    81511.993    5088183.4   -6314914.8    29222.311    272397.17   -1021367.6    300.03745   -78.415084   -65.999467   -111.81225   -57.433536    3887144.6    1.1069289    4426.0171 
  410000   -748617.51     80432.83    5089652.4   -6314918.4    29146.662     271973.2   -1020590.7    299.57046   -102.65711   -58.006255   -276.99824    27.033163    3884465.2    1.1076925    4437.4335 
  411000   -748532.35    81389.091    5088654.6   -6314903.5    29031.505    272152.46   -1020684.8    299.76791    20.411513    57.796362    -128.5407    131.97888    3883925.3    1.1078465    4448.5699 
  412000   -747301.42     82071.02    5088050.4   -6314917.7    29242.274    272666.05   -1019967.5    300.33361   -24.939785   -6.0487996   -208.97578    140.20522    3883386.1    1.1080003     4459.628 
  413000   -748809.47    81982.258    5088028.4   -6314927.1    29375.322     272157.1   -1020966.6    299.77301   -56.650188    4.7559468   -85.367707   -89.338803    3885066.5     1.107521    4470.7821 
  414000   -747994.02    80713.203    5089647.1   -6314960.4    29009.721    272541.95     -1020536    300.19692   -112.28069   -124.59009   -188.14389     -24.1081    3886371.3    1.1071492    4481.7658 
  415000   -748380.55    81000.878    5089112.1   -6314953.2    28995.527    272551.35   -1020931.9    300.20728    -126.9126   -127.92913   -270.96457    18.155888    3884632.1    1.1076449    4492.8416 
  416000   -749114.08    82562.461    5086480.7   -6314887.1    29234.114    272418.68   -1021532.8    300.06114   -86.146253   -85.988028   -159.25729   -13.193446    3883701.4    1.1079103    4503.9152 
  417000   -749419.01    81353.596    5087606.3   -6314942.9    29135.226    272017.73   -1021436.7    299.61951   -133.34516   -80.049313   -257.74754   -62.238619    3884566.7    1.1076635    4514.8401 
  418000   -747529.74    81191.958    5089046.6     -6314928    29188.628     272962.9   -1020492.6    300.66058   -90.463759    -167.6616   -116.65624    12.926568    3884562.9    1.1076646    4525.8824 
  419000   -749287.24    81256.903    5088181.3   -6314908.1    29379.097    272232.74     -1021520    299.85634   -134.25993   -128.98927   -183.43067   -90.359855    3886572.4    1.1070919    4537.0122 
  420000   -747678.13    81250.288      5089100   -6314963.2    28994.723    272361.34   -1020039.5    299.99798    -11.05126   -1.6046341   -111.05232    79.503177    3887354.4    1.1068692    4548.3434 
  421000   -749370.42    82389.516      5087481     -6314945     29073.27    271383.02   -1020753.4    298.92039    40.199488   -72.789851    123.04502    70.343296    3882384.6    1.1082861    4559.2449 
  422000   -747294.43    81405.778    5088622.2     -6314929    29435.884     272876.9   -1020171.3    300.56586   -143.94548   -58.438485   -163.92389   -209.47405      3884018      1.10782    4570.3658 
  423000    -748360.5    80857.109    5088803.1   -6314910.6    29181.569    272351.68   -1020712.2    299.98735   -77.269215   -27.301009   -198.51494   -5.9916931    3883906.1    1.1078519    4581.4721 
  424000   -748725.37    82077.939    5087219.7   -6314923.3    29038.948    272714.82   -1021440.2    300.38733   -3.1128489   -60.317629    12.782524    38.196559    3887529.5    1.1068193    4592.4298 
  425000   -749590.48    81530.342    5088095.9   -6314870.4    29242.373     271643.3   -1021233.8    299.20708   -39.795536   -21.116754   -211.88645     113.6166      3884525    1.1076754    4603.4717 
  426000   -748694.24    80612.463    5089435.2   -6314924.3    29211.111    272173.34   -1020867.6     299.7909   -156.32474   -139.57286   -273.96841   -55.432937    3885219.9    1.1074773    4614.4985 
  427000   -748227.54    81882.627    5087586.7   -6314925.5    29229.677    272782.51     -1021010    300.46189   -57.420675   -84.314581   -199.11934    111.17189      3883246    1.1080402    4625.5164 
  428000   -747051.39    80518.805    5090199.7   -6314920.4    29159.469    272524.26   -1019575.6    300.17743   -26.584547   -46.580014   -83.106727    49.933101    3880151.8    1.1089238    4636.6059 
  429000   -748939.08    81462.141    5088305.8   -6314924.9    29243.302    272086.65   -1021025.7    299.69542   -96.332081   -13.950122   -206.48474   -68.561382    3886652.6    1.1070691    4647.7147 
  430000   -749661.03    81480.791    5088091.6   -6314926.5    29217.999    271665.77   -1021326.8    299.23183   -59.494519   -83.691414    -104.4987    9.7065594    3881547.3    1.1085252    4659.0159 
  431000   -748866.08    81021.362    5088802.3     -6314933    29166.458     271987.9     -1020854    299.58665   -85.656446    -128.3526    -114.1945    -14.42223    3881970.7    1.1084043    4670.0793 
  432000   -747804.79    81172.141    5088957.4   -6314903.4     29169.37    272845.23     -1020650    300.53097   -99.452761    -68.11961   -236.93253     6.693855    3885642.8    1.1073568    4680.9797 
  433000   -748627.13    80653.605      5088821   -6314918.1    29511.896    272527.23   -1021154.4     300.1807   -138.30897   -43.178159   -247.97298   -123.77578      3883298    1.1080254    4691.9745 
  434000   -747993.74    81990.521    5087623.1   -6314923.1    29054.049    272673.91   -1020667.7    300.34227   -20.914155    7.0655444   -35.005296   -34.802712    3881136.4    1.1086425    4702.9377 
  435000   -748493.55    82050.477    5087700.6   -6314898.2     29236.63    272311.93   -1020805.5    299.94355   -122.98239   -141.78139   -172.46541   -54.700381    3884783.2    1.1076018     4713.977 
  436000   -748942.46    82124.771    5087840.3   -6314937.2    29225.725    271906.89   -1020849.4    299.49742    2.7812259    113.18951   -198.20858    93.362745    3884756.5    1.1076094    4724.9356 
  437000   -748873.69    82013.608    5088284.1   -6314917.8    29234.068    271718.32     -1020592    299.28971    -33.59305   -144.68773   -77.737082    121.64566    3886457.8    1.1071246    4735.9088 
  438000   -748551.98    81451.015    5088336.1   -6314943.2    29034.304    272722.04     -1021274    300.39529    -58.46918   -92.190939   -91.993811    8.7772092    3885554.7    1.1073819    4746.9998 
  439000   -747816.34    80528.335    5089926.1     -6314917    29429.422    272231.43   -1020047.8    299.85489   -196.54144   -217.02033   -266.07638   -106.52761    3886198.7    1.1071983    4757.9123 
  440000    -748224.2    82429.166    5087556.5   -6314900.5    29089.234    272743.16   -1020967.4    300.41854   -23.804787   -45.680321   -14.753261   -10.980778    3883783.3     1.107887    4769.1328 
  441000   -747599.07    80580.159    5089457.3     -6314923    29374.757    272664.45   -1020263.5    300.33185   -108.43643   -41.624429   -192.39282   -91.292056    3883254.7    1.1080378    4780.1814 
  442000   -749104.68    81523.136    5087756.5   -6314898.9    29065.051    272767.89   -1021872.6    300.44579   -106.58452   -92.864062   -151.21534   -75.674141    3885601.5    1.1073685    4791.1936 
  443000   -748832.71    81076.838    5088655.8   -6314926.3    29377.438    271923.78   -1020756.5    299.51603   -54.453075   -199.25361   -50.295781    86.190166    3883714.3    1.1079066     4802.186 
  444000   -748347.28    81515.999    5088517.7   -6314926.6    29117.573    272784.89   -1021132.2    300.46451   -77.580996   -139.98158   -176.49818     83.73677    3885702.6    1.1073397    4813.2162 
  445000    -748508.9     81176.95    5088393.1   -6314918.7    29392.352    272516.91   -1021025.8    300.16933   -172.57565   -239.05396   -270.21533   -8.4576539    3884748.8    1.1076116    4824.1888 
  446000    -749167.9    81864.973    5087512.9   -6314950.5    29380.159    271761.67   -1020929.6    299.33747   -82.879702   -48.985222   -91.744086    -107.9098    3882090.8      1.10837    4835.2185 
  447000   -747635.57    81426.274    5088806.9   -6314921.7    29094.081    272741.66   -1020377.2    300.41689   -16.746251    22.019287   -125.85882    53.600775    3879786.1    1.1090284    4846.2382 
  448000   -748667.77    80893.862    5088640.5   -6314939.7    29107.432    272583.54   -1021251.3    300.24273   -34.918687    7.5596671    -165.3171    53.001371    3880726.3    1.1087597    4857.2415 
  449000   -749804.14    81630.412    5087881.3   -6314946.4    29260.236    271604.07   -1021408.2    299.16387   -88.623219   -249.22513   -58.505948    41.861421    3883441.6    1.1079844    4868.3341 
  450000   -749160.66    81578.552    5088133.2   -6314905.2    28965.734    272477.83   -1021638.5    300.12629   -98.091538   -12.187317   -164.49338   -117.59392    3887632.5      1.10679    4879.5743 
  451000   -748741.89    81173.847      5088777   -6314950.1    29017.073    272343.94   -1021085.8    299.97882   -140.88256   -215.57876   -254.06232    46.993404      3882624    1.1082178    4890.6111 
  452000   -749693.65     80855.86    5088994.1   -6314938.5    29286.807    271595.02   -1021288.7    299.15391   -141.19095      -79.318   -215.01535   -129.23951    3885400.9    1.1074257    4901.7062 
  453000   -748594.45    80771.753    5088999.8   -6314959.2    29269.137    272088.39   -1020682.8    299.69733    -110.7111   -217.01619   -99.271358   -15.845755    3883992.5    1.1078273    4912.8154 
  454000   -748965.77    81625.216    5087945.9     -6314950    28995.931    272458.02   -1021423.8    300.10447   -88.867819    -66.18341   -174.40819   -26.011856      3884834    1.1075873    4923.7978 
  455000   -749405.46    81742.136    5088256.1   -6314931.8    29149.652    271751.01   -1021156.5    299.32572   -52.885902   -104.24388   -58.550784     4.136956    3881462.8    1.1085493    4934.9579 
  456000   -748540.37    81037.955    5089229.7   -6314889.5    29192.173     272311.3   -1020851.7    299.94287   -63.199303   -86.419371   -171.41289    68.234354    3885235.1     1.107473    4946.0483 
  457000   -749271.36     80022.27    5089745.2   -6314896.9    28985.255    271864.86   -1021136.2    299.45112   -206.33518   -239.34829   -242.91511   -136.74215    3884014.9    1.1078209    4956.9753 
  458000   -748357.83    81001.515    5089380.3   -6314889.2    29233.143    272141.53   -1020499.4    299.75587   -28.084298   -125.07825   -46.606154    87.431514    3881446.1    1.1085541    4967.9514 
  459000   -749024.12    81114.284    5089178.7   -6314905.8    29355.269    271637.94   -1020662.1    299.20118   -113.21327   -38.121143   -237.41771   -64.100962    3885546.8    1.1073841    4979.0084 
  460000   -749275.45      81459.5    5088056.4     -6314934    29327.648    271825.03   -1021100.5    299.40725   -48.858094   -51.379809   -61.126175   -34.068297    3884432.6    1.1077018    4990.3936 
  461000   -748487.13    80906.393    5089154.3   -6314904.8     28975.61    272828.82     -1021316     300.5129    -140.2075   -154.80339   -200.55316    -65.26594    3886105.2     1.107225    5001.2529 
  462000   -749287.77    81357.918    5088384.6   -6314917.9    29069.611    272363.07   -1021650.8    299.99988   -91.182449   -192.33265   -153.36302    72.148325    3883009.4    1.1081078    5012.1796 
  463000   -748600.64    82183.366    5087691.8   -6314956.6    28956.688    272665.87   -1021266.5    300.33341    -15.00466     58.90542   -36.188649   -67.730752    3883425.8    1.1079889    5023.2203 
  464000   -749104.34    80515.703      5089073   -6314929.3     29165.42    272193.35   -1021297.7    299.81295   -163.51126   -74.133709   -216.17117    -200.2289    3883773.5    1.1078898    5034.4053 
  465000   -748945.29    80904.302    5089119.1   -6314923.1    29095.652    272257.06   -1021202.4    299.88312   -202.02291   -226.15988   -281.54248   -98.366377    3885575.2     1.107376    5045.2958 
  466000   -748679.73     81459.91      5088442   -6314919.2    29141.609    272474.39   -1021154.1     300.1225   -33.042746   -121.57719   -39.169042    61.617993    3882332.3     1.108301    5056.2769 
  467000   -749093.44    80744.327    5088729.7   -6314962.6    29011.242    272581.61   -1021675.1    300.24061   -55.553278   -258.21625   -58.566046    150.12246    3884303.5    1.1077386    5067.4469 
  468000   -748290.32    81198.064    5089199.2   -6314918.4    29363.032    271999.44   -1020289.8    299.59936   -29.653642   -2.4640463   -88.076113    1.5792334    3880943.9    1.1086975    5078.5008 
  469000   -749786.23    80407.824    5088968.3   -6314920.1    29132.135    271951.31   -1021737.5    299.54635   -140.15506   -268.72321   -131.19544   -20.546518    3882833.1    1.1081581    5089.4928 
  470000   -748957.44    80496.871    5089579.4   -6314952.4    28956.406    272305.01   -1021262.5    299.93594   -78.686267   -82.490448   -169.73775    16.169402    3878847.8    1.1092966    5100.8084 
  471000   -749134.04    79995.782    5089475.6   -6314906.4    29241.625    272436.29   -1021570.3    300.08054   -149.32769    -209.9938   -316.85455    78.865266    3881864.3    1.1084346    5111.8393 
  472000   -749330.24     81049.13    5088442.1     -6314932    29245.964    272141.86   -1021472.1    299.75624   -48.224074  -0.64991072   -106.71895   -37.303361      3883350    1.1080106    5122.7023 
  473000   -749397.84    81362.829    5087621.1   -6314952.6    29098.622    272930.95   -1022328.8    300.62539   -63.849918   -71.410509   -154.65293    34.513689    3879946.7    1.1089824     5133.676 
  474000   -748612.59     81431.88    5088966.1   -6314967.2    29094.911    272074.61   -1020687.2    299.68216     3.337049    -17.34306   -35.428355    62.782562    3882863.7    1.1081493    5144.7883 
  475000   -748420.36    80294.795    5089357.3   -6314907.6    29110.027    272589.83   -1021010.2    300.24966   -95.933935   -144.35268   -142.38403   -1.0650959    3883054.1     1.108095    5155.8188 
  476000   -748518.19    81998.127    5087991.3     -6314900    28946.468     272251.9   -1020770.1    299.87744    37.900585    16.296785   -78.979439    176.38441    3881670.1    1.1084901    5166.7985 
  477000   -748732.71    80703.939    5089102.1   -6314913.2    29134.985    272133.67   -1020866.4    299.74721   -122.65127   -133.46735   -108.13844   -126.34801    3886121.3    1.1072204    5177.7749 
  478000   -747819.08    80278.592    5089777.9   -6314854.5    29150.946    272852.52   -1020671.6      300.539   -182.22815    -211.8886   -146.70735   -188.08851    3883919.7     1.107848    5188.8521 
  479000   -749427.32     80860.89    5089310.1   -6314948.2    28847.862    271519.69     -1020947    299.07093   -47.937601    84.088676   -97.702726   -130.19875    3883542.5    1.1079557    5199.8527 
  480000   -750032.89    81201.936      5087887   -6314866.8    29006.949     272245.9   -1022278.8    299.87082   -78.643483   -55.749848    -117.7089   -62.471704      3882925    1.1081318    5211.1335 
  481000   -749057.61    81261.832    5088772.3   -6314893.7    28735.537    272352.57   -1021410.2    299.98832  -0.73160427    66.197288    -113.8351    45.443003    3885692.9    1.1073425    5222.2236 
  482000   -747248.29    79925.642    5090613.2   -6314913.5    29165.676    272733.54   -1019981.8    300.40795   -121.47238    -148.1355   -196.01131   -20.270347    3884960.2    1.1075513    5233.2889 
  483000   -748165.01    81183.235    5089438.1     -6314920     29065.04    272487.47   -1020652.5    300.13692    51.405926    117.75755    41.008931   -4.5487048    3884407.6    1.1077089     5244.236 
  484000   -748509.45    80030.591    5089823.5   -6314895.5    29202.228    272292.86   -1020802.3    299.92255   -125.40004   -250.39448    -109.0021    -16.80354    3881252.8    1.1086093    5255.2901 
  485000   -748462.98    81237.072    5088415.1   -6314917.1     29215.78    272619.79   -1021082.8    300.28266   -89.494327   -139.69096   -54.512925   -74.279095    3886934.1    1.1069889    5266.3497 
  486000      -749027    81699.144    5088164.6     -6314883    29206.333    272539.87   -1021566.9    300.19463   -111.40213   -171.48718   -107.37979   -55.339431    3884864.3    1.1075787    5277.3726 
  487000   -748762.12    80939.317    5089047.4   -6314948.9      29300.9    272181.77   -1020943.9    299.80019   -127.77921   -231.41619   -194.73389    42.812444    3881693.8    1.1084833    5288.2691 
  488000   -749990.91    81740.322    5087551.1   -6314943.9    28907.553    271948.87   -1021939.8    299.54365   -51.183012   -34.714315   -87.504988   -31.329733    3882947.3    1.1081255     5299.408 
  489000   -749710.79    80687.521    5088539.3   -6314884.6    28986.316    272465.91   -1022176.7    300.11317   -113.34425   -209.42317   -129.36026    -1.249311    3881015.6     1.108677    5310.5432 
  490000   -748497.16    81132.132    5088412.9   -6314881.4    29193.363    272580.77   -1021077.9    300.23968   -102.28211   -84.613327     -175.097   -47.136004    3884890.8    1.1075711    5321.8737 
  491000   -748172.81    81300.221    5088483.3   -6314935.3    29263.257    272929.89   -1021102.7    300.62422   -6.5556314   -35.806375   -44.339915    60.479396    3883953.6    1.1078384    5332.8439 
  492000   -748819.53    80962.777    5088978.7   -6314913.8     29001.53    272426.93   -1021246.5    300.07023   -99.604263   -83.047756   -154.44389   -61.321142    3883959.7    1.1078366    5343.9446 
  493000   -749444.87    81731.341    5087335.6   -6314931.3     29042.24    272801.47   -1022246.3    300.48277   -58.768699   -88.232039   -101.01498     12.94092    3883120.3    1.1080761     5355.019 
  494000   -748661.85    81834.529    5087432.3   -6314944.1    29367.234    272661.98   -1021323.8    300.32913   -30.344547    32.876781   -152.67118    28.760758    3882101.1     1.108367    5365.9998 
  495000   -749603.06    80793.134      5088982   -6314940.2    29043.461    271683.91     -1021287    299.25182   -143.35165   -158.04375   -147.29476   -124.71643    3886283.9    1.1071741    5377.0308 
  496000   -749575.79    80934.415    5088580.6   -6314885.3    29006.406    271621.06   -1021196.8    299.18259   -57.147018   -117.22376   -100.26659    46.049296    3883974.2    1.1078325    5388.1065 
  497000      -749179    81687.304    5087479.7   -6314928.8    28903.801    272702.25   -1021881.3    300.37348   -33.694669   -91.358069   -16.149492    6.4235542    3883316.7    1.1080201    5399.1115 
  498000   -748059.08    80807.381    5089475.1   -6314926.3    29187.078    272595.87     -1020655    300.25631    -177.2932   -179.84149   -290.80761   -61.230486      3884103    1.1077958    5410.0969 
  499000    -749177.3    80425.422    5089537.4   -6314914.8    29134.036    271935.15   -1021112.5    299.52855   -52.257813   -86.556693   -143.44608    73.229331    3883311.5    1.1080215    5421.1888 
  500000   -750036.52    80774.151    5088513.4   -6314924.5    28979.127    271475.35   -1021511.9    299.02209   -66.095435    -110.5775   -29.427216    -58.28159    3885178.6    1.1074891    5432.5315 
  501000   -748858.97    81356.871    5088542.2   -6314881.7    29036.392    272081.61   -1020940.6    299.68987   -45.186712    12.480818   -187.37392    39.332967      3881771    1.1084613    5443.5758 
  502000   -748446.14    81362.963    5088468.1   -6314910.9    29305.524    272228.22   -1020674.4    299.85136   -42.270389   -1.1125986   -180.82183    55.123259    3883451.4    1.1079816    5454.5857 
  503000   -748993.85    81655.418    5087243.8     -6314895    29090.516    272878.38   -1021872.2    300.56749   -40.246839   -11.871353   -147.60044    38.731273    3887279.4    1.1068905    5465.6642 
  504000   -747991.01    81472.407      5087816   -6314866.7    29114.404    273603.71   -1021594.7    301.36642   -79.531833   -163.33361   -119.22508    43.963191    3886234.5    1.1071882    5476.6773 
  505000   -749233.57    81190.032    5087996.8     -6314930    29180.415    272591.81   -1021825.4    300.25184   -51.263156    11.581764   -115.96382   -49.407412    3884114.7    1.1077924    5487.6441 
  506000   -750121.46    81188.834    5087939.1   -6314894.1    29271.255    271601.17   -1021722.6    299.16068   -153.46148   -219.82581   -247.89483    7.3361999    3888755.2    1.1064705    5498.7491 
  507000   -750689.09    81194.204    5087474.6   -6314954.8    29068.336    271932.64   -1022621.7    299.52578    -121.1148   -79.139868   -379.10262    94.898103    3883719.7    1.1079051    5509.9168 
  508000   -748621.07    80795.716    5089270.7   -6314914.9    28946.629    272474.62   -1021095.7    300.12275    29.533457    3.9952469    23.653662    60.951463      3882641    1.1082129    5521.0457 
  509000   -747588.41    81025.027    5088723.7   -6314908.3    29187.114    273597.55     -1021186    301.35963   -38.386106   -87.883257   -148.09675    120.82169    3882755.9    1.1081801    5532.0575 
  510000   -748946.06    81673.453    5088433.3   -6314920.9    28984.902    271694.51   -1020640.6    299.26349   -6.3636666   -55.537201   -134.05749    170.50369    3886818.5    1.1070218    5543.3637 
  510160   -749178.71     80553.51      5089043   -6314936.8     29211.94    271961.23   -1021139.9    299.55728   -167.71709   -119.27857   -377.30996   -6.5627315    3886998.5    1.1069705    5545.1099 
Loop time of 5545.11 on 1280 procs for 500000 steps with 376785 atoms

Performance: 15.581 ns/day, 1.540 hours/ns, 90.170 timesteps/s
99.9% CPU use with 1280 MPI tasks x no OpenMP threads

MPI task timing breakdown:
Section |  min time  |  avg time  |  max time  |%varavg| %total
---------------------------------------------------------------
Pair    | 2256.8     | 3060.5     | 3731.4     | 613.2 | 55.19
Bond    | 3.9296     | 39.033     | 98.549     | 632.9 |  0.70
Kspace  | 1003.3     | 1670       | 2436.7     | 757.9 | 30.12
Neigh   | 209.74     | 213.08     | 216.42     |  10.0 |  3.84
Comm    | 198.39     | 251.81     | 311.05     | 171.1 |  4.54
Output  | 18.422     | 18.424     | 18.549     |   0.1 |  0.33
Modify  | 228.76     | 260.54     | 292.13     |  96.6 |  4.70
Other   |            | 31.7       |            |       |  0.57

Nlocal:    294.363 ave 341 max 256 min
Histogram: 12 77 180 210 260 263 210 64 3 1
Nghost:    8704.25 ave 9133 max 8170 min
Histogram: 66 220 48 123 42 136 43 199 340 63
Neighs:    214585 ave 258133 max 167412 min
Histogram: 19 80 104 170 181 228 230 181 73 14

Total # of neighbors = 274668440
Ave neighs/atom = 728.979
Ave special neighs/atom = 4.95808
Neighbor list builds = 34203
Dangerous builds = 25

# ----------------- Run Section -----------------

# The lines above define the system you want to simulate.
# What you do next is up to you.
# Typically a user would minimize and equilibrate
# the system using commands similar to the following:
#  ----   examples   ----
#
#  -- minimize --
# minimize 1.0e-5 1.0e-7 1000 10000
# (Note: Some fixes, for example "shake", interfere with the minimize command,
#        You can use the "unfix" command to disable them before minimization.)
#  -- declare time step for normal MD --
# timestep 1.0
#  -- run at constant pressure (Nose-Hoover)--
# fix   fxnpt all npt temp 300.0 300.0 100.0 iso 1.0 1.0 1000.0 drag 1.0
#  -- ALTERNATELY, run at constant volume (Nose-Hoover) --
# fix   fxnvt all nvt temp 300.0 300.0 500.0 tchain 1
#  -- ALTERNATELY, run at constant volume using Langevin dynamics. --
#  -- (This is good for sparse CG polymers in implicit solvent.)   --
# fix fxLAN all langevin 300.0 300.0 5000 48279
# fix fxNVE all nve  #(<--needed by fix langevin)
#  -- Now, finally run the simulation --
# run   50000
#  ---- (end of examples) ----

Total wall time: 1:35:12
